4994
1 5 2 3 4537 4538 4602
2 4 1 3 2571 4537
3 5 1 2 2571 2572 4602
4 6 4067 4079 4082 4537 4545 4969
5 4 8 40 62 65
6 6 7 8 9 10 4843 4844
7 8 6 10 3417 3451 3454 3557 4615 4844
8 6 5 6 9 40 62 4843
9 5 6 8 10 62 3560
10 7 6 7 9 3557 3559 3560 3561
11 5 12 13 16 78 98
12 8 11 14 15 16 52 69 73 78
13 7 11 14 16 32 98 99 101
14 9 12 13 15 16 31 32 56 58 59
15 6 12 14 56 59 73 75
16 4 11 12 13 14
17 5 18 19 20 3545 4525
18 7 17 20 21 77 91 95 4525
19 7 17 20 21 22 3543 3545 4841
20 4 17 18 19 21
21 6 18 19 20 22 71 77
22 7 19 21 67 68 71 4841 4842
23 7 24 26 27 2215 2221 3469 3552
24 4 23 25 26 3469
25 7 24 26 27 28 3469 3492 3493
26 4 23 24 25 27
27 9 23 25 26 28 102 104 2141 2215 2220
28 8 25 27 104 105 3490 3491 3493 3494
29 4 30 31 54 58
30 7 29 31 33 34 35 54 55
31 6 14 29 30 32 35 58
32 6 13 14 31 35 100 101
33 5 30 34 35 2213 4664
34 6 30 33 55 2140 2142 4664
35 8 30 31 32 33 100 2151 2212 2213
36 4 38 39 40 65
37 5 38 41 42 66 70
38 6 36 37 39 41 65 66
39 6 36 38 40 41 46 86
40 8 5 8 36 39 44 46 65 4843
41 6 37 38 39 42 86 89
42 6 37 41 49 51 70 89
43 4 44 46 4845 4849
44 6 40 43 45 46 4843 4849
45 4 44 4843 4844 4849
46 6 39 40 43 44 86 4845
47 5 50 53 80 81 88
48 6 49 50 51 52 53 88
49 5 42 48 51 88 89
50 4 47 48 53 88
51 6 42 48 49 52 69 70
52 6 12 48 51 53 69 78
53 6 47 48 50 52 78 80
54 8 29 30 55 56 57 58 94 106
55 6 30 34 54 106 2141 2142
56 6 14 15 54 57 58 59
57 6 54 56 59 76 93 94
58 5 14 29 31 54 56
59 6 14 15 56 57 75 76
60 7 61 63 65 66 67 3563 4842
61 5 60 63 64 3563 3566
62 6 5 8 9 64 65 3560
63 4 60 61 64 65
64 7 61 62 63 65 3560 3564 3566
65 9 5 36 38 40 60 62 63 64 66
66 6 37 38 60 65 67 70
67 6 22 60 66 68 70 4842
68 5 22 67 69 70 71
69 8 12 51 52 68 70 71 73 74
70 7 37 42 51 66 67 68 69
71 7 21 22 68 69 72 74 77
72 6 71 74 75 76 77 95
73 5 12 15 69 74 75
74 5 69 71 72 73 75
75 6 15 59 72 73 74 76
76 6 57 59 72 75 93 95
77 5 18 21 71 72 95
78 7 11 12 52 53 79 80 98
79 5 78 80 81 82 98
80 5 47 53 78 79 81
81 6 47 79 80 82 84 88
82 6 79 81 83 84 96 98
83 3 82 84 96
84 7 81 82 83 88 96 2257 2259
85 4 86 87 89 4846
86 7 39 41 46 85 89 4845 4846
87 6 85 88 89 4846 4847 4848
88 9 47 48 49 50 81 84 87 89 4848
89 7 41 42 49 85 86 87 88
90 4 91 92 104 4526
91 6 18 90 92 95 4525 4526
92 7 90 91 93 95 104 4839 4840
93 6 57 76 92 94 95 4840
94 5 54 57 93 106 4840
95 7 18 72 76 77 91 92 93
96 7 82 83 84 97 98 99 2257
97 7 96 99 100 101 2151 2257 2264
98 7 11 13 78 79 82 96 99
99 5 13 96 97 98 101
100 5 32 35 97 101 2151
101 5 13 32 97 99 100
102 4 27 103 104 2141
103 5 102 104 106 2141 4839
104 9 27 28 90 92 102 103 105 4526 4839
105 4 28 104 3491 4526
106 7 54 55 94 103 2141 4839 4840
107 6 108 111 112 160 1367 4709
108 5 107 110 112 160 163
109 4 110 163 259 261
110 6 108 109 112 113 163 261
111 6 107 112 113 114 1462 4709
112 5 107 108 110 111 113
113 6 110 111 112 114 115 261
114 5 111 113 115 1462 1475
115 7 113 114 116 146 252 261 1475
116 7 115 146 148 252 1469 1470 1475
117 6 119 121 122 142 143 4698
118 5 120 121 123 125 4696
119 4 117 120 121 122
120 10 118 119 121 122 565 569 2020 4695 4696 4711
121 7 117 118 119 120 123 124 142
122 8 117 119 120 4698 4703 4704 4706 4711
123 6 118 121 124 125 214 223
124 4 121 123 142 223
125 5 118 123 214 4695 4696
126 8 127 128 129 131 135 136 137 210
127 7 126 131 137 194 202 846 861
128 4 126 129 130 131
129 6 126 128 130 133 210 212
130 7 128 129 131 133 134 833 846
131 5 126 127 128 130 846
132 9 133 134 211 212 479 531 532 534 834
133 5 129 130 132 134 212
134 5 130 132 133 833 834
135 7 126 136 137 200 202 204 206
136 6 126 135 206 208 209 210
137 4 126 127 135 202
138 5 497 4702 4705 4706 4707
139 7 295 296 299 300 494 497 4707
140 4 141 142 143 4697
141 5 140 142 223 248 4697
142 7 117 121 124 140 141 143 223
143 7 117 140 142 4697 4698 4699 4700
144 6 145 152 1864 1869 1896 1897
145 5 144 151 152 1863 1864
146 6 115 116 147 148 149 252
147 7 146 149 150 252 253 307 311
148 8 116 146 149 151 153 1469 1863 1874
149 5 146 147 148 150 153
150 6 147 149 152 153 302 311
151 5 145 148 152 153 1863
152 8 144 145 150 151 153 172 302 1896
153 5 148 149 150 151 152
154 6 155 156 157 1361 1363 1368
155 6 154 157 159 234 235 1368
156 5 154 157 158 160 1361
157 5 154 155 156 158 159
158 6 156 157 159 160 161 162
159 9 155 157 158 162 235 239 254 255 257
160 9 107 108 156 158 161 163 1361 1366 1367
161 4 158 160 162 163
162 5 158 159 161 163 254
163 8 108 109 110 160 161 162 254 259
164 8 167 171 172 185 198 284 303 306
165 5 166 167 168 171 173
166 7 165 168 169 172 173 1893 1896
167 5 164 165 171 172 173
168 5 165 166 169 171 196
169 5 166 168 170 196 1893
170 5 169 196 1893 1894 1895
171 6 164 165 167 168 196 198
172 8 152 164 166 167 173 302 303 1896
173 4 165 166 167 172
174 5 175 176 179 180 218
175 4 174 176 183 218
176 8 174 175 177 179 183 216 2010 2012
177 5 176 178 179 2010 2011
178 5 177 179 181 2011 2014
179 6 174 176 177 178 180 181
180 6 174 179 181 182 215 218
181 5 178 179 180 182 2014
182 8 180 181 214 215 2014 2015 2016 4695
183 6 175 176 216 217 218 219
184 5 185 187 188 190 192
185 9 164 184 190 191 192 198 282 283 284
186 8 187 188 189 228 229 230 247 248
187 5 184 186 188 192 247
188 5 184 186 187 189 190
189 7 186 188 190 191 213 226 230
190 5 184 185 188 189 191
191 7 185 189 190 193 198 199 213
192 7 184 185 187 245 247 283 291
193 5 191 195 197 198 199
194 10 127 195 196 200 201 202 861 875 1909 1911
195 6 193 194 197 198 200 201
196 9 168 169 170 171 194 198 201 1895 1911
197 4 193 195 199 200
198 8 164 171 185 191 193 195 196 201
199 7 191 193 197 200 204 205 213
200 7 135 194 195 197 199 202 204
201 4 194 195 196 198
202 5 127 135 137 194 200
203 7 204 205 206 207 213 224 298
204 6 135 199 200 203 205 206
205 4 199 203 204 213
206 6 135 136 203 204 207 208
207 7 203 206 208 209 294 297 298
208 4 136 206 207 209
209 7 136 207 208 210 211 294 297
210 6 126 129 136 209 211 212
211 8 132 209 210 212 292 294 479 481
212 5 129 132 133 210 211
213 7 189 191 199 203 205 224 226
214 7 123 125 182 215 221 223 4695
215 6 180 182 214 218 220 221
216 8 176 183 219 249 250 251 266 277
217 4 183 218 219 220
218 7 174 175 180 183 215 217 220
219 5 183 216 217 220 251
220 7 215 217 218 219 221 222 251
221 5 214 215 220 222 223
222 4 220 221 223 251
223 10 123 124 141 142 214 221 222 246 248 251
224 5 203 213 225 226 298
225 9 224 226 227 232 233 296 297 298 301
226 7 189 213 224 225 230 231 233
227 6 225 228 232 296 4697 4707
228 6 186 227 229 232 248 4697
229 5 186 228 230 231 232
230 5 186 189 226 229 231
231 5 226 229 230 232 233
232 6 225 227 228 229 231 233
233 4 225 226 231 232
234 8 155 235 238 240 242 255 275 1368
235 5 155 159 234 239 240
236 5 237 238 242 279 281
237 5 236 241 242 273 281
238 6 234 236 242 275 279 280
239 4 159 235 240 255
240 4 234 235 239 255
241 3 237 273 277
242 5 234 236 237 238 1368
243 7 244 246 247 248 249 266 4693
244 3 243 246 248
245 6 192 247 290 291 4693 4694
246 7 223 243 244 248 249 250 251
247 7 186 187 192 243 245 248 4693
248 9 141 186 223 228 243 244 246 247 4697
249 5 216 243 246 250 266
250 4 216 246 249 251
251 7 216 219 220 222 223 246 250
252 6 115 116 146 147 253 261
253 8 147 252 260 261 268 271 307 308
254 6 159 162 163 257 258 259
255 7 159 234 239 240 256 257 275
256 5 255 257 258 267 275
257 5 159 254 255 256 258
258 7 254 256 257 259 260 267 269
259 6 109 163 254 258 260 261
260 6 253 258 259 261 268 269
261 8 109 110 113 115 252 253 259 260
262 7 263 264 269 270 271 287 288
263 6 262 265 266 270 288 4693
264 5 262 271 286 287 308
265 4 263 288 290 4693
266 12 216 243 249 263 267 270 274 275 276 277 278 4693
267 6 256 258 266 269 270 275
268 4 253 260 269 271
269 7 258 260 262 267 268 270 271
270 5 262 263 266 267 269
271 6 253 262 264 268 269 308
272 5 273 274 278 279 281
273 6 237 241 272 274 277 281
274 5 266 272 273 277 278
275 8 234 238 255 256 266 267 276 280
276 5 266 275 278 279 280
277 5 216 241 266 273 274
278 5 266 272 274 276 279
279 7 236 238 272 276 278 280 281
280 4 238 275 276 279
281 5 236 237 272 273 279
282 4 185 283 284 285
283 7 185 192 282 285 288 290 291
284 5 164 185 282 285 306
285 7 282 283 284 288 289 304 306
286 6 264 287 289 304 308 310
287 5 262 264 286 288 289
288 8 262 263 265 283 285 287 289 290
289 5 285 286 287 288 304
290 6 245 265 283 288 291 4693
291 5 192 245 283 290 4693
292 9 211 293 294 295 300 480 481 595 597
293 5 292 294 296 300 301
294 7 207 209 211 292 293 297 301
295 6 139 292 299 300 499 597
296 7 139 225 227 293 300 301 4707
297 6 207 209 225 294 298 301
298 5 203 207 224 225 297
299 4 139 295 494 499
300 5 139 292 293 295 296
301 5 225 293 294 296 297
302 6 150 152 172 303 305 311
303 6 164 172 302 304 305 306
304 7 285 286 289 303 305 306 310
305 6 302 303 304 309 310 311
306 5 164 284 285 303 304
307 5 147 253 308 309 311
308 7 253 264 271 286 307 309 310
309 5 305 307 308 310 311
310 5 286 304 305 308 309
311 6 147 150 302 305 307 309
312 6 313 314 315 317 357 358
313 6 312 315 357 358 366 419
314 5 312 317 342 352 357
315 9 312 313 316 317 318 363 364 366 4668
316 5 315 317 318 349 351
317 6 312 314 315 316 349 352
318 6 315 316 351 428 431 4668
319 7 320 322 325 387 391 393 426
320 5 319 321 325 405 426
321 6 320 324 325 402 403 405
322 6 319 323 325 393 449 450
323 5 322 324 325 403 449
324 4 321 323 325 403
325 6 319 320 321 322 323 324
326 8 331 332 408 410 444 447 1556 1557
327 6 328 329 397 398 1553 4645
328 4 327 329 330 398
329 7 327 328 330 331 332 1556 4645
330 6 328 329 332 334 337 398
331 4 326 329 332 1556
332 6 326 329 330 331 337 444
333 4 334 337 338 339
334 5 330 333 337 339 398
335 4 336 338 339 430
336 9 335 339 348 350 351 376 430 432 433
337 6 330 332 333 334 338 444
338 7 333 335 337 339 430 444 445
339 8 333 334 335 336 338 376 377 398
340 6 341 342 345 346 420 424
341 4 340 343 345 346
342 7 314 340 345 352 357 424 425
343 6 341 344 345 346 353 380
344 6 343 346 379 380 436 440
345 6 340 341 342 343 352 353
346 9 340 341 343 344 404 406 420 434 436
347 6 348 349 350 352 353 380
348 6 336 347 350 375 376 380
349 6 316 317 347 350 351 352
350 5 336 347 348 349 351
351 7 316 318 336 349 350 431 433
352 7 314 317 342 345 347 349 353
353 5 343 345 347 352 380
354 8 355 356 359 360 388 416 417 419
355 4 354 356 358 419
356 7 354 355 357 358 359 423 425
357 7 312 313 314 342 356 358 425
358 6 312 313 355 356 357 419
359 5 354 356 388 392 423
360 3 354 388 416
361 5 362 363 366 418 419
362 4 361 363 365 4667
363 6 315 361 362 364 366 4667
364 4 315 363 4667 4668
365 3 362 4667 4668
366 6 313 315 361 363 418 419
367 5 369 373 428 429 431
368 8 369 370 371 372 373 442 443 445
369 6 367 368 371 373 690 698
370 4 368 372 413 443
371 4 368 369 372 698
372 6 368 370 371 413 698 705
373 6 367 368 369 427 429 445
374 6 375 376 377 378 394 399
375 6 348 374 376 378 379 380
376 6 336 339 348 374 375 377
377 6 339 374 376 394 396 398
378 6 374 375 379 386 399 439
379 6 344 375 378 380 439 440
380 7 343 344 347 348 353 375 379
381 4 382 383 384 1609
382 7 381 384 397 399 400 1545 1609
383 7 381 384 385 1603 1609 1610 4513
384 5 381 382 383 385 399
385 5 383 384 386 399 4513
386 6 378 385 399 438 439 4513
387 6 319 391 392 421 422 426
388 9 354 359 360 389 390 391 392 414 416
389 2 388 390
390 4 388 389 391 393
391 6 319 387 388 390 392 393
392 6 359 387 388 391 422 423
393 4 319 322 390 391
394 5 374 377 396 399 400
395 4 396 397 398 400
396 5 377 394 395 398 400
397 7 327 382 395 398 400 1545 1553
398 9 327 328 330 334 339 377 395 396 397
399 8 374 378 382 384 385 386 394 400
400 6 382 394 395 396 397 399
401 5 402 403 407 1517 1518
402 8 321 401 403 404 405 1512 1514 1518
403 8 321 323 324 401 402 407 448 449
404 6 346 402 405 406 434 1514
405 6 320 321 402 404 406 426
406 5 346 404 405 420 426
407 7 401 403 448 450 454 1515 1517
408 7 326 410 411 659 1541 1556 1557
409 6 410 411 412 413 441 446
410 6 326 408 409 411 446 447
411 5 408 409 410 412 659
412 5 409 411 413 659 663
413 8 370 372 409 412 441 443 663 705
414 4 388 415 416 4665
415 3 414 418 4665
416 7 354 360 388 414 417 4665 4666
417 5 354 416 418 419 4666
418 7 361 366 415 417 419 4665 4666
419 8 313 354 355 358 361 366 417 418
420 5 340 346 406 424 426
421 5 387 422 424 425 426
422 5 387 392 421 423 425
423 5 356 359 392 422 425
424 6 340 342 420 421 425 426
425 7 342 356 357 421 422 423 424
426 8 319 320 387 405 406 420 421 424
427 4 373 429 430 445
428 4 318 367 431 4668
429 6 367 373 427 430 431 432
430 7 335 336 338 427 429 432 445
431 7 318 351 367 428 429 432 433
432 5 336 429 430 431 433
433 4 336 351 431 432
434 6 346 404 435 436 1514 4514
435 6 434 436 437 438 4513 4514
436 6 344 346 434 435 437 440
437 5 435 436 438 439 440
438 5 386 435 437 439 4513
439 6 378 379 386 437 438 440
440 5 344 379 436 437 439
441 5 409 413 442 443 446
442 5 368 441 443 445 446
443 5 368 370 413 441 442
444 7 326 332 337 338 445 446 447
445 8 338 368 373 427 430 442 444 446
446 7 409 410 441 442 444 445 447
447 4 326 410 444 446
448 4 403 407 449 450
449 5 322 323 403 448 450
450 7 322 407 448 449 452 453 454
451 4 452 453 1613 1614
452 3 450 451 453
453 6 450 451 452 454 1614 1616
454 5 407 450 453 1515 1616
455 5 456 460 461 462 1224
456 7 455 457 459 462 1224 1292 1294
457 6 456 458 459 460 462 605
458 7 457 460 461 593 603 605 606
459 8 456 457 586 604 605 1255 1289 1292
460 5 455 457 458 461 462
461 7 455 458 460 593 1223 1224 4720
462 4 455 456 457 460
463 5 465 500 596 598 4714
464 6 465 469 470 554 556 4713
465 6 463 464 469 500 4713 4714
466 6 575 588 595 598 599 4714
467 5 468 469 498 521 4596
468 5 467 469 470 518 4596
469 7 464 465 467 468 470 498 500
470 7 464 468 469 518 551 553 554
471 5 472 475 614 615 616
472 6 471 474 475 477 559 614
473 7 474 478 523 524 558 893 931
474 7 472 473 477 478 558 559 560
475 5 471 472 476 559 615
476 5 475 510 559 562 615
477 5 472 474 478 538 614
478 6 473 474 477 538 539 931
479 6 132 211 481 482 484 532
480 5 292 481 595 4715 4716
481 7 211 292 479 480 482 483 4715
482 4 479 481 483 484
483 7 481 482 484 491 492 4715 4716
484 7 479 482 483 488 492 493 532
485 6 486 488 533 537 611 614
486 5 485 488 609 611 613
487 7 489 492 493 575 601 610 613
488 7 484 485 486 493 532 533 613
489 5 487 507 508 575 610
490 4 491 595 600 4716
491 6 483 490 492 600 601 4716
492 6 483 484 487 491 493 601
493 5 484 487 488 492 613
494 5 139 299 495 497 499
495 5 494 496 497 499 501
496 6 495 498 499 500 501 568
497 9 138 139 494 495 501 4706 4707 4711 4712
498 6 467 469 496 500 521 568
499 8 295 299 494 495 496 500 597 602
500 8 463 465 469 496 498 499 596 602
501 6 495 496 497 567 568 4712
502 7 504 505 506 508 509 572 4719
503 5 504 508 513 610 615
504 5 502 503 505 508 513
505 6 502 504 506 513 4593 4597
506 6 502 505 1194 4597 4719 4720
507 4 489 508 509 575
508 7 489 502 503 504 507 509 610
509 5 502 507 508 572 575
510 7 476 511 512 514 515 562 615
511 4 510 512 515 1780
512 7 510 511 557 562 563 1780 2710
513 7 503 504 505 514 515 615 4593
514 4 510 513 515 615
515 7 510 511 513 514 1780 4593 4597
516 6 517 519 520 546 2023 2071
517 5 516 518 519 520 4596
518 6 468 470 517 519 551 4596
519 6 516 517 518 546 550 551
520 6 516 517 2066 2070 2071 4596
521 5 467 498 568 2060 4596
522 6 529 530 4426 4428 4429 4455
523 6 473 524 525 526 893 931
524 4 473 523 525 558
525 5 523 524 526 527 558
526 7 523 525 527 528 892 893 895
527 6 525 526 528 529 558 561
528 6 526 527 529 530 892 4457
529 7 522 527 528 530 561 4428 4470
530 5 522 528 529 4455 4457
531 5 132 532 533 534 535
532 6 132 479 484 488 531 533
533 6 485 488 531 532 535 537
534 5 132 531 535 536 834
535 6 531 533 534 536 537 538
536 5 534 535 538 539 834
537 5 485 533 535 538 614
538 7 477 478 535 536 537 539 614
539 7 478 536 538 834 837 838 931
540 6 541 543 545 580 2030 2031
541 7 540 542 543 544 546 547 2030
542 6 541 543 544 555 582 587
543 6 540 541 542 545 582 583
544 5 541 542 547 552 555
545 4 540 543 580 583
546 10 516 519 541 547 550 2023 2030 2033 2071 4873
547 5 541 544 546 550 552
548 5 549 555 587 607 4717
549 8 548 553 554 555 556 589 4595 4717
550 5 519 546 547 551 552
551 6 470 518 519 550 552 553
552 6 544 547 550 551 553 555
553 6 470 549 551 552 554 555
554 5 464 470 549 553 556
555 7 542 544 548 549 552 553 587
556 7 464 549 554 588 4595 4713 4722
557 4 512 563 564 2710
558 7 473 474 524 525 527 560 561
559 7 472 474 475 476 560 562 564
560 5 474 558 559 561 564
561 6 527 529 558 560 564 4470
562 6 476 510 512 559 563 564
563 4 512 557 562 564
564 10 557 559 560 561 562 563 2710 4466 4467 4470
565 7 120 566 567 569 570 4711 4712
566 6 565 567 568 570 571 2064
567 5 501 565 566 568 4712
568 8 496 498 501 521 566 567 2060 2064
569 5 120 565 570 2020 2022
570 5 565 566 569 571 2022
571 7 566 570 2022 2064 2092 2094 2096
572 6 502 509 573 575 4594 4719
573 7 572 575 576 577 578 579 4594
574 3 4594 4719 4720
575 13 466 487 489 507 509 572 573 576 577 588 592 599 601
576 5 573 575 577 578 592
577 3 573 575 576
578 5 573 576 579 592 594
579 6 573 578 593 594 4594 4720
580 6 540 545 583 1259 1260 2031
581 2 582 584
582 8 542 543 581 583 584 585 586 587
583 6 543 545 580 582 585 1260
584 6 581 582 586 587 604 607
585 5 582 583 586 1255 1260
586 6 459 582 584 585 604 1255
587 6 542 548 555 582 584 607
588 11 466 556 575 590 591 592 599 4713 4714 4722 4724
589 7 549 590 608 4595 4717 4718 4724
590 6 588 589 591 593 608 4724
591 5 588 590 592 593 594
592 6 575 576 578 588 591 594
593 9 458 461 579 590 591 594 603 608 4720
594 5 578 579 591 592 593
595 9 292 466 480 490 597 598 599 600 4716
596 5 463 500 597 598 602
597 7 292 295 499 595 596 598 602
598 6 463 466 595 596 597 4714
599 6 466 575 588 595 600 601
600 5 490 491 595 599 601
601 6 487 491 492 575 599 600
602 4 499 500 596 597
603 5 458 593 606 608 4718
604 6 459 584 586 605 606 607
605 5 457 458 459 604 606
606 7 458 603 604 605 607 4717 4718
607 6 548 584 587 604 606 4717
608 5 589 590 593 603 4718
609 5 486 611 612 613 616
610 7 487 489 503 508 612 613 615
611 5 485 486 609 614 616
612 5 609 610 613 615 616
613 7 486 487 488 493 609 610 612
614 8 471 472 477 485 537 538 611 616
615 10 471 475 476 503 510 513 514 610 612 616
616 6 471 609 611 612 614 615
617 7 618 620 621 625 664 667 785
618 8 617 619 620 625 648 787 791 4828
619 4 618 620 648 649
620 8 617 618 619 621 622 623 639 649
621 6 617 620 622 666 667 775
622 6 620 621 623 624 634 775
623 5 620 622 624 639 640
624 6 622 623 632 633 634 640
625 4 617 618 785 787
626 4 627 628 631 4517
627 3 626 628 631
628 7 626 627 629 630 631 716 1033
629 4 628 630 631 4517
630 5 628 629 716 717 4517
631 5 626 627 628 629 4517
632 7 624 633 636 639 640 732 734
633 5 624 632 634 635 636
634 7 622 624 633 635 722 775 777
635 5 633 634 636 722 725
636 7 632 633 635 637 638 725 734
637 6 636 638 716 720 728 734
638 4 636 637 720 725
639 7 620 623 632 640 642 649 732
640 4 623 624 632 639
641 6 642 648 731 793 795 4829
642 6 639 641 648 649 731 732
643 6 644 645 788 3086 4510 4512
644 7 643 645 647 683 687 3045 3086
645 6 643 644 646 647 788 790
646 6 645 647 789 790 791 4828
647 9 644 645 646 687 794 795 797 4828 4829
648 7 618 619 641 642 649 4828 4829
649 5 619 620 639 642 648
650 7 655 658 690 693 717 718 754
651 6 652 653 721 727 758 762
652 4 651 653 656 721
653 5 651 652 654 656 762
654 5 653 655 656 657 762
655 7 650 654 657 658 754 762 763
656 6 652 653 654 657 718 721
657 5 654 655 656 658 718
658 4 650 655 657 718
659 9 408 411 412 660 662 663 666 1536 1541
660 5 659 661 662 665 1536
661 5 660 665 752 1536 1543
662 4 659 660 665 666
663 7 412 413 659 666 668 705 706
664 8 617 665 667 750 752 753 785 3116
665 7 660 661 662 664 666 667 752
666 9 621 659 662 663 665 667 668 775 783
667 5 617 621 664 665 666
668 8 663 666 700 701 702 706 707 783
669 5 671 674 675 712 769
670 6 671 672 673 676 677 678
671 6 669 670 672 674 676 769
672 6 670 671 673 765 767 769
673 7 670 672 677 679 684 740 765
674 6 669 671 675 676 1141 1145
675 6 669 674 712 713 1094 1141
676 6 670 671 674 678 1145 4515
677 4 670 673 678 740
678 6 670 676 677 740 743 4515
679 4 673 681 684 765
680 7 681 682 688 765 772 3043 3045
681 5 679 680 682 684 765
682 6 680 681 683 684 685 3045
683 7 644 682 685 686 687 3045 3086
684 8 673 679 681 682 685 739 740 741
685 5 682 683 684 686 741
686 4 683 685 687 741
687 7 644 647 683 686 741 794 796
688 4 680 3043 3044 3045
689 6 690 691 692 698 700 708
690 8 369 650 689 691 693 694 696 698
691 4 689 690 692 694
692 7 689 691 694 695 700 703 704
693 6 650 690 696 754 755 757
694 5 690 691 692 695 696
695 8 692 694 696 697 704 755 756 759
696 5 690 693 694 695 755
697 6 695 704 756 759 776 780
698 7 369 371 372 689 690 705 708
699 4 705 707 708 709
700 8 668 689 692 701 703 707 708 709
701 4 668 700 702 703
702 5 668 701 703 704 783
703 5 692 700 701 702 704
704 8 692 695 697 702 703 776 778 783
705 8 372 413 663 698 699 706 707 708
706 4 663 668 705 707
707 6 668 699 700 705 706 709
708 6 689 698 699 700 705 709
709 4 699 700 707 708
710 4 715 1089 4826 4827
711 6 712 714 768 774 4826 4827
712 8 669 675 711 713 768 769 1089 4827
713 7 675 712 1089 1091 1092 1093 1094
714 9 711 770 774 3172 3174 3175 3176 3767 4826
715 6 710 1088 1089 1115 2917 4826
716 10 628 630 637 717 718 720 728 1031 1033 1034
717 5 630 650 716 718 4517
718 8 650 656 657 658 716 717 720 721
719 4 720 721 725 726
720 7 637 638 716 718 719 721 725
721 8 651 652 656 718 719 720 726 727
722 7 634 635 724 725 726 777 781
723 5 724 727 758 781 782
724 5 722 723 726 727 781
725 7 635 636 638 719 720 722 726
726 6 719 721 722 724 725 727
727 6 651 721 723 724 726 758
728 10 637 716 729 730 734 806 1004 1007 1017 1034
729 5 728 730 737 804 806
730 4 728 729 734 737
731 5 641 642 732 733 793
732 8 632 639 642 731 733 734 735 736
733 5 731 732 735 793 800
734 9 632 636 637 728 730 732 735 736 737
735 7 732 733 734 736 737 800 804
736 3 732 734 735
737 5 729 730 734 735 804
738 8 744 745 746 803 1082 1083 1084 1086
739 6 684 740 741 742 744 796
740 7 673 677 678 684 739 742 743
741 6 684 685 686 687 739 796
742 5 739 740 743 744 745
743 6 678 740 742 745 746 4515
744 8 738 739 742 745 792 796 798 803
745 5 738 742 743 744 746
746 6 738 743 745 945 1082 4515
747 10 748 750 1537 1583 1584 1585 3112 3113 3115 3120
748 5 747 749 750 1537 1542
749 6 748 750 751 752 1542 1543
750 8 664 747 748 749 751 753 3115 3116
751 4 749 750 752 753
752 8 661 664 665 749 751 753 1542 1543
753 4 664 750 751 752
754 8 650 655 693 757 759 760 761 763
755 5 693 695 696 757 759
756 6 695 697 758 759 761 780
757 5 693 754 755 759 760
758 8 651 723 727 756 761 762 780 782
759 8 695 697 754 755 756 757 760 761
760 3 754 757 759
761 6 754 756 758 759 762 763
762 7 651 653 654 655 758 761 763
763 4 655 754 761 762
764 3 766 768 774
765 7 672 673 679 680 681 767 772
766 5 764 767 768 769 774
767 8 672 765 766 769 770 772 773 774
768 6 711 712 764 766 769 774
769 7 669 671 672 712 766 767 768
770 6 714 767 771 773 774 3172
771 6 770 772 773 3170 3171 3172
772 8 680 765 767 771 773 3043 3170 3177
773 5 767 770 771 772 774
774 8 711 714 764 766 767 768 770 773
775 9 621 622 634 666 777 778 779 781 783
776 6 697 704 778 780 781 782
777 5 634 722 775 779 781
778 5 704 775 776 781 783
779 3 775 777 781
780 5 697 756 758 776 782
781 9 722 723 724 775 776 777 778 779 782
782 5 723 758 776 780 781
783 6 666 668 702 704 775 778
784 6 785 786 3087 3088 3114 4509
785 8 617 625 664 784 786 787 3114 3116
786 7 784 785 787 788 789 4509 4510
787 6 618 625 785 786 789 791
788 6 643 645 786 789 790 4510
789 6 646 786 787 788 790 791
790 4 645 646 788 789
791 5 618 646 787 789 4828
792 6 744 793 796 797 798 799
793 8 641 731 733 792 795 797 799 800
794 4 647 687 796 797
795 5 641 647 793 797 4829
796 7 687 739 741 744 792 794 797
797 6 647 792 793 794 795 796
798 9 744 792 799 800 801 802 803 804 807
799 4 792 793 798 800
800 7 733 735 793 798 799 802 804
801 4 798 803 805 807
802 3 798 800 804
803 6 738 744 798 801 805 1086
804 8 729 735 737 798 800 802 806 807
805 8 801 803 806 807 1016 1079 1081 1086
806 7 728 729 804 805 807 1016 1017
807 5 798 801 804 805 806
808 5 809 810 811 814 815
809 6 808 811 815 854 865 868
810 8 808 811 812 813 814 844 845 920
811 5 808 809 810 812 868
812 6 810 811 813 821 868 924
813 4 810 812 920 924
814 6 808 810 815 844 859 860
815 5 808 809 814 854 860
816 4 817 819 4505 4983
817 5 816 905 4462 4505 4983
818 4 819 898 903 4983
819 8 816 818 876 880 881 898 4505 4983
820 6 822 825 827 828 829 889
821 5 812 823 824 868 924
822 7 820 823 826 827 866 868 889
823 5 821 822 824 826 868
824 6 821 823 826 907 924 4477
825 7 820 827 829 906 914 915 916
826 5 822 823 824 827 907
827 6 820 822 825 826 906 907
828 5 820 829 832 889 4979
829 5 820 825 828 914 4979
830 4 914 2574 4979 4980
831 5 832 888 2628 2645 4979
832 6 828 831 884 888 889 4979
833 8 130 134 834 835 837 839 840 846
834 7 132 134 534 536 539 833 837
835 6 833 836 837 838 839 928
836 6 835 839 840 926 927 928
837 5 539 833 834 835 838
838 5 539 835 837 928 931
839 4 833 835 836 840
840 7 833 836 839 842 846 847 926
841 5 842 843 847 857 859
842 6 840 841 843 847 926 929
843 6 841 842 844 845 859 929
844 5 810 814 843 845 859
845 6 810 843 844 917 920 929
846 7 127 130 131 833 840 847 861
847 6 840 841 842 846 857 861
848 4 850 851 855 874
849 5 850 854 855 858 860
850 7 848 849 851 852 854 855 874
851 8 848 850 852 853 863 874 884 890
852 5 850 851 853 854 865
853 5 851 852 862 863 865
854 7 809 815 849 850 852 860 865
855 8 848 849 850 856 858 861 874 875
856 5 855 857 858 859 861
857 5 841 847 856 859 861
858 5 849 855 856 859 860
859 8 814 841 843 844 856 857 858 860
860 6 814 815 849 854 858 859
861 8 127 194 846 847 855 856 857 875
862 6 853 863 864 865 866 867
863 6 851 853 862 866 884 889
864 4 862 865 867 868
865 7 809 852 853 854 862 864 868
866 6 822 862 863 867 868 889
867 4 862 864 866 868
868 10 809 811 812 821 822 823 864 865 866 867
869 7 870 871 872 873 875 2633 2635
870 3 869 871 875
871 5 869 870 872 874 875
872 4 869 871 873 874
873 6 869 872 874 890 2630 2633
874 9 848 850 851 855 871 872 873 875 890
875 11 194 855 861 869 870 871 874 1909 1910 2632 2635
876 8 819 877 879 880 882 898 4482 4538
877 3 876 882 898
878 5 879 882 2590 2592 4538
879 4 876 878 882 4538
880 4 819 876 881 4482
881 5 819 880 4481 4482 4505
882 7 876 877 878 879 898 2592 4984
883 7 884 885 886 887 890 2630 2651
884 8 832 851 863 883 887 888 889 890
885 3 883 886 887
886 6 883 885 887 888 2646 2651
887 5 883 884 885 886 888
888 8 831 832 884 886 887 2628 2645 2646
889 7 820 822 828 832 863 866 884
890 6 851 873 874 883 884 2630
891 6 892 895 896 897 4404 4406
892 7 526 528 891 895 4406 4457 4458
893 8 473 523 526 894 895 925 930 931
894 4 893 895 922 925
895 8 526 891 892 893 894 897 922 923
896 5 891 897 918 919 4404
897 5 891 895 896 919 923
898 9 818 819 876 877 882 900 901 903 4984
899 6 900 2577 2594 2595 4980 4984
900 8 898 899 901 902 913 2577 4980 4984
901 4 898 900 902 903
902 6 900 901 903 913 4982 4983
903 5 818 898 901 902 4983
904 3 905 909 4982
905 11 817 904 907 908 909 4462 4463 4474 4477 4982 4983
906 7 825 827 907 910 911 916 4982
907 7 824 826 827 905 906 4477 4982
908 3 905 909 4982
909 4 904 905 908 4982
910 6 906 911 912 915 916 4981
911 5 906 910 912 4981 4982
912 5 910 911 913 4981 4982
913 7 900 902 912 4980 4981 4982 4983
914 6 825 829 830 915 4979 4980
915 6 825 910 914 916 4980 4981
916 4 825 906 910 915
917 6 845 918 919 920 921 929
918 5 896 917 919 920 4404
919 6 896 897 917 918 921 923
920 9 810 813 845 917 918 924 4404 4405 4407
921 6 917 919 922 923 929 930
922 6 894 895 921 923 925 930
923 5 895 897 919 921 922
924 7 812 813 821 824 920 4405 4477
925 4 893 894 922 930
926 6 836 840 842 927 929 930
927 5 836 926 928 930 931
928 5 835 836 838 927 931
929 7 842 843 845 917 921 926 930
930 8 893 921 922 925 926 927 929 931
931 9 473 478 523 539 838 893 927 928 930
932 6 933 936 941 1002 4753 4760
933 6 932 937 939 941 1061 4753
934 6 935 936 940 943 1001 1002
935 3 934 936 1002
936 6 932 934 935 940 941 1002
937 5 933 938 939 1061 1138
938 6 937 939 940 949 1136 1138
939 5 933 937 938 940 941
940 7 934 936 938 939 941 943 949
941 5 932 933 936 939 940
942 7 943 944 947 948 1001 1014 1085
943 6 934 940 942 944 949 1001
944 4 942 943 948 949
945 5 746 947 1082 4515 4516
946 4 948 1136 1140 4516
947 7 942 945 948 1082 1083 1085 4516
948 8 942 944 946 947 949 1136 1140 4516
949 6 938 940 943 944 948 1136
950 9 951 952 954 955 1038 1039 1098 1102 1112
951 6 950 955 1038 1043 1133 1134
952 4 950 953 954 955
953 7 952 954 955 956 958 959 1126
954 7 950 952 953 956 959 1102 1103
955 6 950 951 952 953 1126 1134
956 6 953 954 957 959 1103 1106
957 5 956 959 1063 1066 1106
958 4 953 959 960 1126
959 8 953 954 956 957 958 960 1066 1067
960 5 958 959 1067 1126 1129
961 6 964 965 966 967 4750 4751
962 5 963 964 966 1131 3878
963 4 962 1128 1131 3878
964 6 961 962 965 966 967 1131
965 5 961 964 1131 1132 4751
966 9 961 962 964 967 969 3878 3880 4755 4757
967 7 961 964 966 968 969 4750 4751
968 6 967 969 1062 1067 4750 4754
969 6 966 967 968 4754 4755 4756
970 5 971 972 974 978 982
971 7 970 973 974 978 1019 1022 1026
972 4 970 974 976 982
973 6 971 974 975 977 1022 1024
974 6 970 971 972 973 975 976
975 4 973 974 976 977
976 4 972 974 975 977
977 4 973 975 976 1024
978 7 970 971 979 982 985 986 1026
979 5 978 980 982 986 3911
980 4 979 981 982 3911
981 2 980 982
982 6 970 972 978 979 980 981
983 5 984 985 986 1046 3910
984 7 983 985 1025 1026 1044 1046 1049
985 5 978 983 984 986 1026
986 6 978 979 983 985 3910 3911
987 7 989 991 994 1059 1060 1073 1075
988 6 989 996 1045 1047 1052 1124
989 7 987 988 994 995 996 1052 1059
990 5 991 993 998 1000 4760
991 7 987 990 993 994 998 1001 1073
992 6 993 995 1000 1121 1124 4763
993 6 990 991 992 994 995 1000
994 5 987 989 991 993 995
995 6 989 992 993 994 996 1124
996 4 988 989 995 1124
997 6 1117 1121 4755 4756 4761 4763
998 6 990 991 999 1001 1002 4760
999 3 998 1001 1002
1000 7 990 992 993 4760 4761 4762 4763
1001 10 934 942 943 991 998 999 1002 1014 1016 1073
1002 8 932 934 935 936 998 999 1001 4760
1003 4 1004 1006 1007 1017
1004 4 728 1003 1007 1017
1005 6 1007 1008 1009 1029 1030 1034
1006 4 1003 1007 1009 1017
1007 8 728 1003 1004 1005 1006 1008 1009 1034
1008 3 1005 1007 1009
1009 6 1005 1006 1007 1008 1017 1030
1010 3 1011 1012 1017
1011 7 1010 1012 1013 1017 1018 1070 1077
1012 7 1010 1011 1017 1030 1032 1033 1070
1013 5 1011 1016 1017 1018 1074
1014 5 942 1001 1015 1016 1085
1015 6 1014 1016 1080 1083 1084 1085
1016 12 805 806 1001 1013 1014 1015 1017 1073 1074 1078 1080 1081
1017 12 728 806 1003 1004 1006 1009 1010 1011 1012 1013 1016 1030
1018 4 1011 1013 1074 1077
1019 5 971 1021 1022 1025 1026
1020 5 1022 1023 1024 1027 1056
1021 5 1019 1022 1025 1027 1051
1022 7 971 973 1019 1020 1021 1024 1027
1023 3 1020 1024 1056
1024 5 973 977 1020 1022 1023
1025 6 984 1019 1021 1026 1049 1051
1026 6 971 978 984 985 1019 1025
1027 5 1020 1021 1022 1051 1056
1028 6 1029 1030 1031 1032 1033 1034
1029 4 1005 1028 1030 1034
1030 7 1005 1009 1012 1017 1028 1029 1032
1031 4 716 1028 1033 1034
1032 4 1012 1028 1030 1033
1033 6 628 716 1012 1028 1031 1032
1034 7 716 728 1005 1007 1028 1029 1031
1035 6 1036 1037 1039 1108 1112 2994
1036 7 1035 1108 1110 1114 2942 2994 2997
1037 8 1035 1039 1040 1041 2993 2994 3256 3257
1038 5 950 951 1039 1042 1043
1039 8 950 1035 1037 1038 1041 1042 1098 1112
1040 7 1037 1041 1042 1043 3257 3273 3276
1041 4 1037 1039 1040 1042
1042 5 1038 1039 1040 1041 1043
1043 6 951 1038 1040 1042 1133 3273
1044 6 984 1045 1046 1049 1124 3887
1045 6 988 1044 1047 1048 1049 1124
1046 6 983 984 1044 3886 3887 3910
1047 4 988 1045 1048 1052
1048 7 1045 1047 1049 1050 1052 1056 1059
1049 7 984 1025 1044 1045 1048 1050 1051
1050 4 1048 1049 1051 1056
1051 6 1021 1025 1027 1049 1050 1056
1052 5 988 989 1047 1048 1059
1053 5 1054 1055 1056 1059 1060
1054 6 1053 1055 1060 1072 1075 1076
1055 5 1053 1054 1056 1057 1072
1056 10 1020 1023 1027 1048 1050 1051 1053 1055 1057 1059
1057 4 1055 1056 1058 1072
1058 2 1057 1072
1059 7 987 989 1048 1052 1053 1056 1060
1060 5 987 1053 1054 1059 1075
1061 10 933 937 1062 1064 1065 1066 1068 1069 1138 4753
1062 7 968 1061 1067 1069 4752 4753 4754
1063 9 957 1064 1065 1066 1087 1090 1095 1105 1106
1064 6 1061 1063 1065 1087 1138 1144
1065 4 1061 1063 1064 1066
1066 7 957 959 1061 1063 1065 1067 1068
1067 9 959 960 968 1062 1066 1068 1069 1129 4750
1068 4 1061 1066 1067 1069
1069 4 1061 1062 1067 1068
1070 5 1011 1012 1071 1072 1077
1071 5 1070 1072 1074 1076 1077
1072 7 1054 1055 1057 1058 1070 1071 1076
1073 7 987 991 1001 1016 1074 1075 1076
1074 7 1013 1016 1018 1071 1073 1076 1077
1075 5 987 1054 1060 1073 1076
1076 6 1054 1071 1072 1073 1074 1075
1077 5 1011 1018 1070 1071 1074
1078 5 1016 1079 1080 1081 1086
1079 4 805 1078 1081 1086
1080 5 1015 1016 1078 1084 1086
1081 4 805 1016 1078 1079
1082 5 738 746 945 947 1083
1083 6 738 947 1015 1082 1084 1085
1084 5 738 1015 1080 1083 1086
1085 5 942 947 1014 1015 1083
1086 7 738 803 805 1078 1079 1080 1084
1087 8 1063 1064 1093 1095 1096 1139 1142 1144
1088 6 715 1089 1091 1107 1109 1115
1089 7 710 712 713 715 1088 1091 4827
1090 6 1063 1091 1093 1095 1101 1105
1091 8 713 1088 1089 1090 1093 1100 1101 1109
1092 3 713 1093 1094
1093 8 713 1087 1090 1091 1092 1094 1095 1096
1094 6 675 713 1092 1093 1096 1141
1095 4 1063 1087 1090 1093
1096 6 1087 1093 1094 1141 1142 1143
1097 5 1099 1100 1103 1104 1109
1098 8 950 1039 1099 1102 1103 1108 1111 1112
1099 5 1097 1098 1103 1109 1111
1100 5 1091 1097 1101 1104 1109
1101 5 1090 1091 1100 1104 1105
1102 4 950 954 1098 1103
1103 8 954 956 1097 1098 1099 1102 1104 1106
1104 6 1097 1100 1101 1103 1105 1106
1105 5 1063 1090 1101 1104 1106
1106 6 956 957 1063 1103 1104 1105
1107 5 1088 1109 1110 1113 1115
1108 6 1035 1036 1098 1110 1111 1112
1109 8 1088 1091 1097 1099 1100 1107 1110 1111
1110 7 1036 1107 1108 1109 1111 1113 1114
1111 5 1098 1099 1108 1109 1110
1112 5 950 1035 1039 1098 1108
1113 6 1107 1110 1114 1115 2918 2924
1114 6 1036 1110 1113 2924 2941 2942
1115 6 715 1088 1107 1113 2917 2918
1116 5 1117 1118 1119 4755 4757
1117 7 997 1116 1119 1121 1122 4755 4763
1118 9 1116 1119 1120 1122 1123 3882 3884 3888 4757
1119 4 1116 1117 1118 1122
1120 4 1118 1122 1123 1124
1121 6 992 997 1117 1122 1124 4763
1122 6 1117 1118 1119 1120 1121 1124
1123 5 1118 1120 1124 3888 3890
1124 12 988 992 995 996 1044 1045 1120 1121 1122 1123 3887 3890
1125 4 1127 1128 1134 1135
1126 6 953 955 958 960 1129 1134
1127 6 1125 1128 1129 1130 1131 1134
1128 8 963 1125 1127 1131 1135 3274 3275 3878
1129 8 960 1067 1126 1127 1130 1132 1134 4750
1130 4 1127 1129 1131 1132
1131 8 962 963 964 965 1127 1128 1130 1132
1132 6 965 1129 1130 1131 4750 4751
1133 6 951 1043 1134 1135 3273 3274
1134 8 951 955 1125 1126 1127 1129 1133 1135
1135 5 1125 1128 1133 1134 3274
1136 8 938 946 948 949 1137 1138 1140 1144
1137 6 1136 1139 1140 1142 1144 1145
1138 6 937 938 1061 1064 1136 1144
1139 4 1087 1137 1142 1144
1140 6 946 948 1136 1137 1145 4516
1141 6 674 675 1094 1096 1143 1145
1142 6 1087 1096 1137 1139 1143 1145
1143 4 1096 1141 1142 1145
1144 6 1064 1087 1136 1137 1138 1139
1145 9 674 676 1137 1140 1141 1142 1143 4515 4516
1146 4 1147 1148 1195 1221
1147 8 1146 1148 1149 1150 1151 1190 1195 4730
1148 9 1146 1147 1150 1153 1183 1220 1221 1297 1298
1149 4 1147 1150 1151 1152
1150 5 1147 1148 1149 1152 1153
1151 6 1147 1149 1152 1154 1189 1190
1152 5 1149 1150 1151 1153 1154
1153 6 1148 1150 1152 1154 1298 1302
1154 7 1151 1152 1153 1189 1192 1302 1327
1155 6 1156 1157 1158 1159 1163 1173
1156 8 1155 1157 1158 1198 1199 1233 1236 1237
1157 6 1155 1156 1159 1161 1229 1233
1158 6 1155 1156 1173 1197 1198 4731
1159 7 1155 1157 1160 1161 1163 1294 1295
1160 5 1159 1162 1163 1228 1294
1161 6 1157 1159 1229 1230 1295 1296
1162 4 1160 1163 1175 1228
1163 6 1155 1159 1160 1162 1173 1175
1164 6 1165 1166 1244 1245 1308 1311
1165 7 1164 1166 1167 1168 1170 1171 1245
1166 4 1164 1165 1167 1308
1167 5 1165 1166 1171 1285 1308
1168 7 1165 1169 1170 1239 1240 1243 1245
1169 5 1168 1170 1171 1208 1239
1170 4 1165 1168 1169 1171
1171 11 1165 1167 1169 1170 1199 1208 1231 1237 1284 1285 1286
1172 4 1174 1222 1227 1228
1173 6 1155 1158 1163 1175 1176 4731
1174 5 1172 1175 1222 1228 4733
1175 8 1162 1163 1173 1174 1176 1177 1228 4733
1176 4 1173 1175 1177 4731
1177 7 1175 1176 1333 4731 4732 4733 4734
1178 5 1179 1181 1182 1186 2440
1179 5 1178 1182 1185 1186 1332
1180 8 1181 1183 1299 1300 1301 1305 2440 2558
1181 5 1178 1180 1183 1186 2440
1182 6 1178 1179 1248 1250 1332 2440
1183 8 1148 1180 1181 1184 1186 1220 1297 1299
1184 6 1183 1185 1186 1220 1222 4733
1185 5 1179 1184 1186 1332 4733
1186 6 1178 1179 1181 1183 1184 1185
1187 6 1188 1194 1779 1780 4729 4730
1188 7 1187 1189 1191 1778 1779 1781 4730
1189 7 1151 1154 1188 1190 1191 1192 4730
1190 4 1147 1151 1189 4730
1191 8 1188 1189 1192 1193 1765 1778 1857 1860
1192 6 1154 1189 1191 1193 1302 1327
1193 6 1191 1192 1327 1763 1765 1769
1194 8 506 1187 1195 1780 4597 4720 4729 4730
1195 8 1146 1147 1194 1220 1221 1225 4720 4730
1196 8 1201 1202 1203 1246 1252 1284 2441 2549
1197 6 1158 1198 1334 1335 4731 4732
1198 7 1156 1158 1197 1199 1200 1203 1335
1199 7 1156 1171 1198 1200 1202 1237 1284
1200 5 1198 1199 1201 1202 1203
1201 4 1196 1200 1202 1203
1202 5 1196 1199 1200 1201 1284
1203 7 1196 1198 1200 1201 1252 1329 1335
1204 5 1210 1277 1279 4541 4542
1205 5 1206 1209 1211 1238 4542
1206 5 1205 1208 1211 1238 1239
1207 5 1208 1214 1215 1231 1296
1208 8 1169 1171 1206 1207 1211 1215 1231 1239
1209 6 1205 1210 1211 1212 1269 4542
1210 8 1204 1209 1268 1269 1270 1271 1277 4542
1211 6 1205 1206 1208 1209 1212 1215
1212 6 1209 1211 1214 1215 1219 1269
1213 8 1214 1216 1219 1254 1255 1291 1293 1296
1214 6 1207 1212 1213 1215 1219 1296
1215 5 1207 1208 1211 1212 1214
1216 6 1213 1218 1219 1254 1258 1259
1217 5 1218 1219 1262 1266 1269
1218 7 1216 1217 1219 1256 1257 1258 1262
1219 7 1212 1213 1214 1216 1217 1218 1269
1220 7 1148 1183 1184 1195 1221 1222 1225
1221 4 1146 1148 1195 1220
1222 7 1172 1174 1184 1220 1225 1227 4733
1223 5 461 1224 1225 4720 4721
1224 9 455 456 461 1223 1225 1226 1227 1228 1294
1225 8 1195 1220 1222 1223 1224 1227 4720 4721
1226 3 1224 1227 1228
1227 6 1172 1222 1224 1225 1226 1228
1228 9 1160 1162 1172 1174 1175 1224 1226 1227 1294
1229 5 1157 1161 1230 1232 1233
1230 5 1161 1229 1231 1232 1296
1231 8 1171 1207 1208 1230 1232 1234 1237 1296
1232 7 1229 1230 1231 1233 1234 1235 1237
1233 6 1156 1157 1229 1232 1235 1236
1234 2 1231 1232
1235 4 1232 1233 1236 1237
1236 4 1156 1233 1235 1237
1237 8 1156 1171 1199 1231 1232 1235 1236 1284
1238 6 1205 1206 1239 1240 1241 4542
1239 6 1168 1169 1206 1208 1238 1240
1240 6 1168 1238 1239 1241 1242 1243
1241 9 1238 1240 1242 1243 1244 2420 2423 4541 4542
1242 3 1240 1241 1243
1243 6 1168 1240 1241 1242 1244 1245
1244 7 1164 1241 1243 1245 1311 2423 2426
1245 5 1164 1165 1168 1243 1244
1246 5 1196 1249 1252 1253 2441
1247 4 1248 1249 1250 1251
1248 6 1182 1247 1250 1251 2440 2442
1249 6 1246 1247 1250 1251 1253 2441
1250 7 1182 1247 1248 1249 1253 1331 1332
1251 6 1247 1248 1249 2441 2442 2443
1252 6 1196 1203 1246 1253 1329 1330
1253 6 1246 1249 1250 1252 1330 1331
1254 5 1213 1216 1255 1259 1261
1255 10 459 585 586 1213 1254 1260 1261 1289 1290 1291
1256 7 1218 1257 1258 2030 2031 2111 2113
1257 5 1218 1256 1262 1263 2113
1258 5 1216 1218 1256 1259 2031
1259 7 580 1216 1254 1258 1260 1261 2031
1260 6 580 583 585 1255 1259 1261
1261 4 1254 1255 1259 1260
1262 5 1217 1218 1257 1263 1266
1263 6 1257 1262 1265 1266 2113 2114
1264 6 1265 1267 1268 1269 2116 2383
1265 6 1263 1264 1266 1269 2114 2116
1266 5 1217 1262 1263 1265 1269
1267 5 1264 1268 1273 2383 2386
1268 7 1210 1264 1267 1269 1270 1271 1273
1269 10 1209 1210 1212 1217 1219 1264 1265 1266 1268 1270
1270 3 1210 1268 1269
1271 5 1210 1268 1273 1275 1277
1272 8 1273 1274 1276 2281 2282 2311 2315 2386
1273 7 1267 1268 1271 1272 1274 1275 2386
1274 5 1272 1273 1275 1276 1278
1275 5 1271 1273 1274 1277 1278
1276 4 1272 1274 1278 2282
1277 8 1204 1210 1271 1275 1278 1279 2419 2420
1278 7 1274 1275 1276 1277 2282 2419 2420
1279 4 1204 1277 2420 4541
1280 4 1281 1285 1314 1316
1281 6 1280 1282 1283 1285 1286 1316
1282 5 1281 1283 1286 2501 2549
1283 5 1281 1282 1316 2500 2501
1284 8 1171 1196 1199 1202 1237 1286 1287 2549
1285 8 1167 1171 1280 1281 1286 1308 1309 1314
1286 7 1171 1281 1282 1284 1285 1287 2549
1287 2 1284 1286
1288 4 1289 1290 1292 1294
1289 5 459 1255 1288 1290 1292
1290 5 1255 1288 1289 1291 1294
1291 6 1213 1255 1290 1293 1294 1295
1292 5 456 459 1288 1289 1294
1293 4 1213 1291 1295 1296
1294 10 456 1159 1160 1224 1228 1288 1290 1291 1292 1295
1295 6 1159 1161 1291 1293 1294 1296
1296 8 1161 1207 1213 1214 1230 1231 1293 1295
1297 5 1148 1183 1298 1299 1301
1298 8 1148 1153 1297 1300 1301 1302 1303 1304
1299 4 1180 1183 1297 1301
1300 5 1180 1298 1301 1303 1305
1301 5 1180 1297 1298 1299 1300
1302 8 1153 1154 1192 1298 1304 1321 1323 1327
1303 4 1298 1300 1304 1305
1304 6 1298 1302 1303 1305 1321 1326
1305 7 1180 1300 1303 1304 1321 1326 2558
1306 6 1307 1308 1309 1310 1311 1312
1307 3 1306 1308 1309
1308 8 1164 1166 1167 1285 1306 1307 1309 1311
1309 7 1285 1306 1307 1308 1312 1314 1320
1310 5 1306 1311 1312 2390 2426
1311 6 1164 1244 1306 1308 1310 2426
1312 8 1306 1309 1310 1313 1317 1320 2390 2392
1313 4 1312 1315 1317 1320
1314 8 1280 1285 1309 1315 1316 1318 1319 1320
1315 5 1313 1314 1317 1318 1320
1316 6 1280 1281 1283 1314 1319 2500
1317 6 1312 1313 1315 1318 2392 2512
1318 7 1314 1315 1317 1319 2506 2512 2513
1319 5 1314 1316 1318 2500 2506
1320 5 1309 1312 1313 1314 1315
1321 6 1302 1304 1305 1323 1326 4518
1322 6 1323 1324 1325 1327 1763 2449
1323 6 1302 1321 1322 1325 1327 4518
1324 4 1322 1325 2449 4518
1325 4 1322 1323 1324 4518
1326 7 1304 1305 1321 2558 2559 4518 4519
1327 7 1154 1192 1193 1302 1322 1323 1763
1328 5 1330 1331 1332 1333 1334
1329 4 1203 1252 1330 1335
1330 7 1252 1253 1328 1329 1331 1334 1335
1331 5 1250 1253 1328 1330 1332
1332 8 1179 1182 1185 1250 1328 1331 1333 4733
1333 7 1177 1328 1332 1334 4732 4733 4734
1334 6 1197 1328 1330 1333 1335 4732
1335 6 1197 1198 1203 1329 1330 1334
1336 6 1338 1339 1471 1476 1874 1875
1337 6 1339 1340 1342 1445 1468 1876
1338 4 1336 1469 1471 1874
1339 6 1336 1337 1468 1476 1875 1876
1340 6 1337 1341 1342 1343 1444 1445
1341 7 1340 1342 1343 1494 1497 1988 1999
1342 6 1337 1340 1341 1876 1999 2000
1343 7 1340 1341 1410 1443 1444 1497 1501
1344 5 1345 1346 1347 1351 1352
1345 7 1344 1346 1347 1349 1404 1406 1425
1346 8 1344 1345 1348 1349 1351 1395 1397 1400
1347 7 1344 1345 1352 1423 1425 1429 1457
1348 7 1346 1349 1350 1397 1401 1509 1510
1349 6 1345 1346 1348 1350 1404 1406
1350 8 1348 1349 1406 1408 1410 1438 1441 1510
1351 6 1344 1346 1352 1395 1454 1456
1352 5 1344 1347 1351 1456 1457
1353 10 1355 1356 1357 1358 1359 1458 1478 1480 1490 1491
1354 5 1357 1359 1360 1481 1482
1355 6 1353 1356 1458 1460 1478 1479
1356 3 1353 1355 1478
1357 6 1353 1354 1359 1480 1482 1483
1358 10 1353 1359 1360 1363 1413 1415 1486 1489 1490 1492
1359 5 1353 1354 1357 1358 1360
1360 6 1354 1358 1359 1413 1414 1481
1361 6 154 156 160 1363 1364 1366
1362 5 1365 1420 1463 1464 1465
1363 7 154 1358 1361 1364 1365 1368 1415
1364 4 1361 1363 1365 1366
1365 8 1362 1363 1364 1366 1367 1415 1420 1465
1366 5 160 1361 1364 1365 1367
1367 7 107 160 1365 1366 1465 1466 4709
1368 5 154 155 234 242 1363
1369 7 1370 1374 1375 1405 1406 1407 1409
1370 4 1369 1371 1374 1375
1371 10 1370 1374 1375 1376 1378 1403 1409 1411 1499 4520
1372 5 1373 1375 1376 1377 1431
1373 9 1372 1377 1378 1431 1500 4215 4216 4218 4585
1374 5 1369 1370 1371 1409 1411
1375 9 1369 1370 1371 1372 1376 1405 1430 1431 1435
1376 5 1371 1372 1375 1377 1378
1377 4 1372 1373 1376 1378
1378 6 1371 1373 1376 1377 1499 1500
1379 6 1380 1383 1384 1387 1393 1394
1380 5 1379 1381 1382 1384 1387
1381 4 1380 1382 1385 1387
1382 5 1380 1381 1383 1384 1385
1383 10 1379 1382 1384 1385 1386 1394 1448 1449 4583 4708
1384 4 1379 1380 1382 1383
1385 8 1381 1382 1383 1386 1387 1459 1490 1491
1386 5 1383 1385 1449 1455 1459
1387 7 1379 1380 1381 1385 1388 1393 1490
1388 5 1387 1391 1393 1488 1490
1389 4 1390 1391 1392 1493
1390 5 1389 1392 1394 4583 4584
1391 7 1388 1389 1392 1393 1487 1488 1493
1392 5 1389 1390 1391 1393 1394
1393 6 1379 1387 1388 1391 1392 1394
1394 6 1379 1383 1390 1392 1393 4583
1395 7 1346 1351 1396 1400 1402 1454 1477
1396 5 1395 1397 1398 1400 1402
1397 7 1346 1348 1396 1398 1399 1400 1401
1398 7 1396 1397 1399 1402 1418 1464 1507
1399 4 1397 1398 1401 1507
1400 4 1346 1395 1396 1397
1401 5 1348 1397 1399 1507 1509
1402 7 1395 1396 1398 1417 1418 1419 1477
1403 6 1371 1410 1411 1412 1502 4520
1404 7 1345 1349 1405 1406 1407 1425 1433
1405 6 1369 1375 1404 1407 1433 1435
1406 8 1345 1349 1350 1369 1404 1407 1408 1409
1407 4 1369 1404 1405 1406
1408 5 1350 1406 1409 1410 1412
1409 7 1369 1371 1374 1406 1408 1411 1412
1410 9 1343 1350 1403 1408 1412 1441 1443 1501 1502
1411 5 1371 1374 1403 1409 1412
1412 5 1403 1408 1409 1410 1411
1413 5 1358 1360 1414 1415 1416
1414 5 1360 1413 1416 1417 1481
1415 8 1358 1363 1365 1413 1416 1418 1419 1420
1416 5 1413 1414 1415 1417 1419
1417 6 1402 1414 1416 1419 1477 1481
1418 7 1398 1402 1415 1419 1420 1463 1464
1419 5 1402 1415 1416 1417 1418
1420 5 1362 1365 1415 1418 1463
1421 5 1422 1424 1429 1446 1447
1422 7 1421 1424 1426 1428 1446 4117 4708
1423 5 1347 1424 1425 1429 1433
1424 9 1421 1422 1423 1426 1427 1429 1432 1433 1435
1425 5 1345 1347 1404 1423 1433
1426 4 1422 1424 1427 1428
1427 6 1424 1426 1428 1432 1434 4585
1428 7 1422 1426 1427 4117 4123 4128 4585
1429 8 1347 1421 1423 1424 1447 1451 1453 1457
1430 6 1375 1431 1432 1434 1435 1436
1431 7 1372 1373 1375 1430 1436 4582 4585
1432 6 1424 1427 1430 1434 1435 1436
1433 6 1404 1405 1423 1424 1425 1435
1434 5 1427 1430 1432 1436 4585
1435 6 1375 1405 1424 1430 1432 1433
1436 6 1430 1431 1432 1434 4582 4585
1437 6 1438 1439 1440 1503 1504 1510
1438 6 1350 1437 1440 1441 1443 1510
1439 4 1437 1440 1442 1503
1440 6 1437 1438 1439 1442 1443 1444
1441 4 1350 1410 1438 1443
1442 7 1439 1440 1444 1445 1503 1505 1506
1443 7 1343 1410 1438 1440 1441 1444 1501
1444 6 1340 1343 1440 1442 1443 1445
1445 6 1337 1340 1442 1444 1468 1506
1446 6 1421 1422 1447 1450 1451 4708
1447 4 1421 1429 1446 1451
1448 5 1383 1449 1450 1452 4708
1449 7 1383 1386 1448 1450 1451 1453 1455
1450 6 1446 1448 1449 1451 1452 4708
1451 7 1429 1446 1447 1449 1450 1453 1455
1452 3 1448 1450 4708
1453 6 1429 1449 1451 1455 1457 1460
1454 6 1351 1395 1456 1460 1477 1485
1455 7 1386 1449 1451 1453 1458 1459 1460
1456 5 1351 1352 1454 1457 1460
1457 6 1347 1352 1429 1453 1456 1460
1458 6 1353 1355 1455 1459 1460 1491
1459 5 1385 1386 1455 1458 1491
1460 10 1355 1453 1454 1455 1456 1457 1458 1479 1484 1485
1461 7 1462 1465 1466 1467 1508 4709 4710
1462 10 111 114 1461 1472 1473 1474 1475 1508 4709 4710
1463 4 1362 1418 1420 1464
1464 8 1362 1398 1418 1463 1465 1467 1507 1508
1465 7 1362 1365 1367 1461 1464 1466 1467
1466 4 1367 1461 1465 4709
1467 4 1461 1464 1465 1508
1468 8 1337 1339 1445 1472 1473 1474 1476 1506
1469 8 116 148 1338 1470 1471 1475 1863 1874
1470 3 116 1469 1475
1471 5 1336 1338 1469 1475 1476
1472 6 1462 1468 1473 1505 1506 1508
1473 4 1462 1468 1472 1474
1474 5 1462 1468 1473 1475 1476
1475 9 114 115 116 1462 1469 1470 1471 1474 1476
1476 6 1336 1339 1468 1471 1474 1475
1477 7 1395 1402 1417 1454 1481 1482 1485
1478 5 1353 1355 1356 1479 1480
1479 5 1355 1460 1478 1480 1484
1480 6 1353 1357 1478 1479 1483 1484
1481 6 1354 1360 1414 1417 1477 1482
1482 6 1354 1357 1477 1481 1483 1485
1483 5 1357 1480 1482 1484 1485
1484 5 1460 1479 1480 1483 1485
1485 6 1454 1460 1477 1482 1483 1484
1486 6 1358 1487 1488 1489 1492 1493
1487 4 1391 1486 1488 1493
1488 6 1388 1391 1486 1487 1489 1490
1489 4 1358 1486 1488 1490
1490 8 1353 1358 1385 1387 1388 1488 1489 1491
1491 5 1353 1385 1458 1459 1490
1492 3 1358 1486 1493
1493 5 1389 1391 1486 1487 1492
1494 8 1341 1497 1501 1502 1988 1989 1990 4520
1495 5 1496 1499 1934 4520 4521
1496 5 1495 1498 1499 1934 1935
1497 4 1341 1343 1494 1501
1498 5 1496 1499 1500 1935 1936
1499 7 1371 1378 1495 1496 1498 1500 4520
1500 9 1373 1378 1498 1499 1936 4165 4166 4218 4221
1501 6 1343 1410 1443 1494 1497 1502
1502 5 1403 1410 1494 1501 4520
1503 6 1437 1439 1442 1504 1505 1508
1504 5 1437 1503 1508 1509 1510
1505 5 1442 1472 1503 1506 1508
1506 5 1442 1445 1468 1472 1505
1507 6 1398 1399 1401 1464 1508 1509
1508 10 1461 1462 1464 1467 1472 1503 1504 1505 1507 1509
1509 6 1348 1401 1504 1507 1508 1510
1510 6 1348 1350 1437 1438 1504 1509
1511 5 1512 1513 1514 1518 1519
1512 4 402 1511 1514 1518
1513 5 1511 1514 1519 1599 1601
1514 9 402 404 434 1511 1512 1513 1595 1601 4514
1515 6 407 454 1516 1517 1616 1617
1516 6 1515 1517 1519 1597 1617 4658
1517 6 401 407 1515 1516 1518 1519
1518 6 401 402 1511 1512 1517 1519
1519 7 1511 1513 1516 1517 1518 1597 1599
1520 6 1521 1523 1526 1527 1573 3053
1521 8 1520 1523 1525 1526 1532 1533 1582 4651
1522 5 1523 1524 1577 1586 4769
1523 7 1520 1521 1522 1524 1577 1582 3053
1524 6 1522 1523 1586 1587 3053 3055
1525 6 1521 1526 1527 1593 4651 4780
1526 4 1520 1521 1525 1527
1527 6 1520 1525 1526 1573 1592 4780
1528 9 1529 1531 1535 1576 1580 1581 1622 1624 1629
1529 6 1528 1530 1531 1594 1629 4792
1530 5 1529 1531 1532 1534 1594
1531 5 1528 1529 1530 1534 1535
1532 6 1521 1530 1533 1534 1594 4651
1533 4 1521 1532 1534 1582
1534 6 1530 1531 1532 1533 1535 1582
1535 5 1528 1531 1534 1580 1582
1536 6 659 660 661 1539 1541 1543
1537 6 747 748 1538 1542 1554 1585
1538 5 1537 1539 1542 1554 1555
1539 7 1536 1538 1540 1541 1542 1543 1555
1540 4 1539 1541 1555 1557
1541 6 408 659 1536 1539 1540 1557
1542 7 748 749 752 1537 1538 1539 1543
1543 6 661 749 752 1536 1539 1542
1544 5 1546 1547 1548 1549 1559
1545 8 382 397 1546 1548 1550 1553 1607 1609
1546 6 1544 1545 1547 1548 1550 1551
1547 5 1544 1546 1551 1559 1561
1548 6 1544 1545 1546 1549 1552 1553
1549 5 1544 1548 1552 1554 1559
1550 4 1545 1546 1551 1607
1551 6 1546 1547 1550 1561 1578 1607
1552 6 1548 1549 1553 1554 1555 4645
1553 6 327 397 1545 1548 1552 4645
1554 7 1537 1538 1549 1552 1555 1559 1585
1555 7 1538 1539 1540 1552 1554 1557 4645
1556 6 326 329 331 408 1557 4645
1557 7 326 408 1540 1541 1555 1556 4645
1558 5 1559 1562 1589 1591 4771
1559 9 1544 1547 1549 1554 1558 1561 1562 1585 1591
1560 7 1562 1575 1577 1579 4769 4770 4771
1561 6 1547 1551 1559 1562 1578 1579
1562 6 1558 1559 1560 1561 1579 4771
1563 7 1564 1566 1567 1618 4647 4657 4782
1564 6 1563 1565 1567 1598 1612 4657
1565 6 1564 1567 1569 1570 1598 1600
1566 5 1563 1567 1570 1618 1623
1567 5 1563 1564 1565 1566 1570
1568 5 1569 1570 1596 1600 1608
1569 4 1565 1568 1570 1600
1570 8 1565 1566 1567 1568 1569 1608 1623 1627
1571 5 1574 3058 4589 4590 4835
1572 8 1573 1592 4659 4774 4775 4776 4777 4787
1573 8 1520 1527 1572 1574 1592 3053 3057 4659
1574 9 1571 1573 3057 3058 3060 4524 4590 4659 4777
1575 6 1560 1576 1577 1578 1579 1581
1576 5 1528 1575 1578 1581 1624
1577 7 1522 1523 1560 1575 1581 1582 4769
1578 7 1551 1561 1575 1576 1579 1607 1624
1579 5 1560 1561 1562 1575 1578
1580 4 1528 1535 1581 1582
1581 6 1528 1575 1576 1577 1580 1582
1582 8 1521 1523 1533 1534 1535 1577 1580 1581
1583 5 747 1584 1585 1590 1591
1584 5 747 1583 1590 3118 3120
1585 6 747 1537 1554 1559 1583 1591
1586 5 1522 1524 1587 1588 4769
1587 5 1524 1586 1588 3055 3135
1588 6 1586 1587 1589 3135 4769 4770
1589 10 1558 1588 1590 1591 3129 3134 3135 4770 4771 4772
1590 6 1583 1584 1589 1591 3118 3129
1591 6 1558 1559 1583 1585 1589 1590
1592 5 1527 1572 1573 4780 4787
1593 6 1525 4651 4779 4780 4783 4785
1594 7 1529 1530 1532 4651 4784 4791 4792
1595 7 1514 1596 1601 1602 1610 4513 4514
1596 6 1568 1595 1600 1602 1608 1610
1597 7 1516 1519 1598 1599 1612 4654 4658
1598 7 1564 1565 1597 1599 1600 1602 1612
1599 6 1513 1519 1597 1598 1601 1602
1600 6 1565 1568 1569 1596 1598 1602
1601 5 1513 1514 1595 1599 1602
1602 6 1595 1596 1598 1599 1600 1601
1603 3 383 1609 1610
1604 3 1607 1611 1624
1605 4 1606 1607 1609 1611
1606 6 1605 1608 1609 1611 1626 1627
1607 9 1545 1550 1551 1578 1604 1605 1609 1611 1624
1608 7 1568 1570 1596 1606 1609 1610 1627
1609 10 381 382 383 1545 1603 1605 1606 1607 1608 1610
1610 7 383 1595 1596 1603 1608 1609 4513
1611 7 1604 1605 1606 1607 1621 1624 1626
1612 7 1564 1597 1598 4653 4654 4655 4657
1613 6 451 1614 1615 1617 4656 4658
1614 5 451 453 1613 1615 1616
1615 4 1613 1614 1616 1617
1616 6 453 454 1515 1614 1615 1617
1617 6 1515 1516 1613 1615 1616 4658
1618 6 1563 1566 1619 1620 1623 4782
1619 5 1618 1620 1622 4648 4782
1620 7 1618 1619 1621 1622 1623 1625 1626
1621 5 1611 1620 1624 1625 1626
1622 9 1528 1619 1620 1624 1625 1628 1629 1630 4648
1623 6 1566 1570 1618 1620 1626 1627
1624 9 1528 1576 1578 1604 1607 1611 1621 1622 1625
1625 4 1620 1621 1622 1624
1626 6 1606 1611 1620 1621 1623 1627
1627 5 1570 1606 1608 1623 1626
1628 6 1622 1629 1630 1631 4648 4650
1629 7 1528 1529 1622 1628 1630 4768 4792
1630 5 1622 1628 1629 1631 4768
1631 5 1628 1630 4650 4768 4792
1632 8 1633 1634 1635 1710 1711 1719 1903 4911
1633 3 1632 1634 1635
1634 6 1632 1633 1635 1636 1638 1903
1635 6 1632 1633 1634 1637 1638 1710
1636 6 1634 1638 1903 2599 2611 2612
1637 5 1635 1638 1710 1713 2606
1638 7 1634 1635 1636 1637 2606 2607 2611
1639 7 1640 1645 1679 1680 1681 1705 1726
1640 6 1639 1641 1642 1644 1645 1681
1641 7 1640 1642 1643 1681 1707 1712 1735
1642 6 1640 1641 1643 1644 1715 1730
1643 4 1641 1642 1707 1715
1644 6 1640 1642 1645 1728 1730 1731
1645 5 1639 1640 1644 1726 1731
1646 6 1647 1650 1651 1652 1752 1754
1647 6 1646 1648 1649 1652 1748 1754
1648 9 1647 1649 1652 1673 1675 1676 1742 1743 4634
1649 4 1647 1648 1742 1748
1650 7 1646 1651 1693 1697 1699 1704 1752
1651 9 1646 1650 1652 1670 1671 1673 1703 1704 4633
1652 5 1646 1647 1648 1651 1673
1653 7 1656 1657 1658 1659 1734 1738 1739
1654 5 1655 1656 1659 1713 2608
1655 4 1654 1656 2608 2641
1656 7 1653 1654 1655 1657 1659 2641 2644
1657 5 1653 1656 1663 1739 2644
1658 6 1653 1659 1712 1713 1733 1734
1659 5 1653 1654 1656 1658 1713
1660 7 1664 1676 1722 1723 4631 4913 4922
1661 9 1662 1663 1672 1678 1737 1738 1739 4642 4912
1662 4 1661 1671 1672 4642
1663 7 1657 1661 1739 2640 2644 4630 4912
1664 5 1660 1674 1675 1676 4913
1665 6 1666 1667 1669 4914 4917 4922
1666 6 1665 1667 1669 2582 2584 4915
1667 4 1665 1666 4915 4917
1668 7 1684 1687 1688 1690 1692 4915 4917
1669 8 1665 1666 2582 2638 2640 4630 4631 4922
1670 4 1651 1671 4633 4642
1671 8 1651 1662 1670 1672 1673 1674 1675 4642
1672 5 1661 1662 1671 1674 4912
1673 5 1648 1651 1652 1671 1675
1674 6 1664 1671 1672 1675 4912 4913
1675 6 1648 1664 1671 1673 1674 1676
1676 6 1648 1660 1664 1675 1722 4634
1677 6 1678 1679 1680 1681 1682 1736
1678 6 1661 1677 1682 1736 1737 4642
1679 5 1639 1677 1680 1682 1705
1680 4 1639 1677 1679 1681
1681 7 1639 1640 1641 1677 1680 1735 1736
1682 7 1677 1678 1679 1700 1702 1705 4642
1683 5 1684 1685 1723 1724 4922
1684 7 1668 1683 1685 1687 4914 4917 4922
1685 10 1683 1684 1686 1687 1688 1724 1725 4000 4002 4936
1686 4 1685 1725 4000 4641
1687 4 1668 1684 1685 1688
1688 7 1668 1685 1687 1692 4083 4636 4936
1689 6 1692 2568 2571 4636 4637 4640
1690 7 1668 1691 1692 4638 4915 4916 4918
1691 4 1690 4638 4918 4920
1692 7 1668 1688 1689 1690 4636 4638 4640
1693 5 1650 1694 1699 1751 1752
1694 13 1693 1695 1696 1698 1699 1750 1751 4189 4194 4196 4197 4199 4807
1695 6 1694 1696 1697 1701 4189 4635
1696 5 1694 1695 1697 1698 1699
1697 6 1650 1695 1696 1699 1701 1704
1698 3 1694 1696 1699
1699 6 1650 1693 1694 1696 1697 1698
1700 5 1682 1701 1702 1705 4635
1701 7 1695 1697 1700 1702 1703 1704 4635
1702 6 1682 1700 1701 1703 4633 4642
1703 5 1651 1701 1702 1704 4633
1704 5 1650 1651 1697 1701 1703
1705 8 1639 1679 1682 1700 1726 1732 4632 4635
1706 7 1707 1709 1711 1712 1715 1716 1718
1707 5 1641 1643 1706 1712 1715
1708 5 1709 1710 1711 1712 1713
1709 4 1706 1708 1711 1712
1710 6 1632 1635 1637 1708 1711 1713
1711 7 1632 1706 1708 1709 1710 1718 4911
1712 9 1641 1658 1706 1707 1708 1709 1713 1733 1735
1713 9 1637 1654 1658 1659 1708 1710 1712 2606 2608
1714 5 1716 1717 1718 1952 1955
1715 7 1642 1643 1706 1707 1716 1720 1730
1716 7 1706 1714 1715 1718 1720 1952 1954
1717 4 1714 1718 1955 4910
1718 7 1706 1711 1714 1716 1717 4910 4911
1719 5 1632 1903 1957 4910 4911
1720 6 1715 1716 1729 1730 1951 1954
1721 6 1722 1723 1724 1725 4634 4641
1722 5 1660 1676 1721 1723 4634
1723 6 1660 1683 1721 1722 1724 4922
1724 5 1683 1685 1721 1723 1725
1725 5 1685 1686 1721 1724 4641
1726 5 1639 1645 1705 1731 1732
1727 4 1728 1729 1951 4162
1728 6 1644 1727 1729 1730 1731 4162
1729 5 1720 1727 1728 1730 1951
1730 6 1642 1644 1715 1720 1728 1729
1731 6 1644 1645 1726 1728 1732 4162
1732 6 1705 1726 1731 4162 4189 4632
1733 4 1658 1712 1734 1735
1734 7 1653 1658 1733 1735 1736 1737 1738
1735 6 1641 1681 1712 1733 1734 1736
1736 6 1677 1678 1681 1734 1735 1737
1737 5 1661 1678 1734 1736 1738
1738 5 1653 1661 1734 1737 1739
1739 5 1653 1657 1661 1663 1738
1740 4 1741 1745 1747 4025
1741 7 1740 1746 1747 4025 4634 4641 4932
1742 5 1648 1649 1743 1744 1748
1743 5 1648 1742 1744 1746 4634
1744 6 1742 1743 1745 1746 1747 1748
1745 7 1740 1744 1747 1748 1749 4017 4025
1746 5 1741 1743 1744 1747 4634
1747 5 1740 1741 1744 1745 1746
1748 7 1647 1649 1742 1744 1745 1749 1754
1749 5 1745 1748 1752 1754 4017
1750 4 1694 1751 1753 4807
1751 5 1693 1694 1750 1752 1753
1752 8 1646 1650 1693 1749 1751 1753 1754 4017
1753 7 1750 1751 1752 4017 4807 4811 4929
1754 5 1646 1647 1748 1749 1752
1755 6 1756 1758 1759 1760 1773 1777
1756 6 1755 1758 1759 1761 2724 2727
1757 6 1758 1760 1761 1773 1799 1842
1758 5 1755 1756 1757 1760 1761
1759 6 1755 1756 1770 1777 2724 2725
1760 4 1755 1757 1758 1773
1761 7 1756 1757 1758 1842 1844 2727 2731
1762 8 1764 1766 1767 1768 1798 1831 1833 1841
1763 6 1193 1322 1327 1769 1830 2449
1764 9 1762 1765 1766 1767 1768 1769 1833 1855 1861
1765 6 1191 1193 1764 1769 1855 1857
1766 6 1762 1764 1767 1841 1843 1861
1767 4 1762 1764 1766 1768
1768 3 1762 1764 1767
1769 6 1193 1763 1764 1765 1830 1833
1770 9 1759 1772 1773 1774 1775 1776 1777 2675 2725
1771 5 1773 1775 1792 1801 1803
1772 3 1770 1774 1776
1773 9 1755 1757 1760 1770 1771 1775 1777 1799 1801
1774 7 1770 1772 1776 1814 1817 2675 2706
1775 6 1770 1771 1773 1776 1792 1813
1776 6 1770 1772 1774 1775 1813 1817
1777 4 1755 1759 1770 1773
1778 6 1188 1191 1779 1781 1856 1860
1779 9 1187 1188 1778 1780 1781 1856 1858 1859 4894
1780 10 511 512 515 1187 1194 1779 2710 2761 4597 4894
1781 3 1188 1778 1779
1782 6 1785 1788 1789 1805 1806 1816
1783 6 1784 1786 1823 1854 2751 2754
1784 6 1783 1785 1786 1787 1788 1854
1785 7 1782 1784 1788 1804 1805 1851 1854
1786 7 1783 1784 1787 1815 2704 2751 2752
1787 5 1784 1786 1788 1812 1815
1788 6 1782 1784 1785 1787 1812 1816
1789 6 1782 1790 1793 1795 1806 1816
1790 7 1789 1791 1793 1794 1806 1807 1820
1791 3 1790 1794 1820
1792 7 1771 1775 1793 1794 1795 1803 1813
1793 5 1789 1790 1792 1794 1795
1794 6 1790 1791 1792 1793 1796 1803
1795 5 1789 1792 1793 1813 1816
1796 4 1794 1797 1801 1803
1797 5 1796 1801 1802 1832 1835
1798 6 1762 1799 1800 1831 1832 1841
1799 7 1757 1773 1798 1800 1801 1841 1842
1800 5 1798 1799 1801 1802 1832
1801 8 1771 1773 1796 1797 1799 1800 1802 1803
1802 4 1797 1800 1801 1832
1803 5 1771 1792 1794 1796 1801
1804 5 1785 1805 1808 1850 1851
1805 6 1782 1785 1804 1806 1807 1808
1806 5 1782 1789 1790 1805 1807
1807 6 1790 1805 1806 1808 1820 1821
1808 7 1804 1805 1807 1809 1818 1821 1850
1809 4 1808 1810 1818 1850
1810 5 1809 1818 1850 1852 1853
1811 5 1812 1813 1814 1816 1817
1812 6 1787 1788 1811 1814 1815 1816
1813 7 1775 1776 1792 1795 1811 1816 1817
1814 7 1774 1811 1812 1815 1817 2704 2706
1815 5 1786 1787 1812 1814 2704
1816 7 1782 1788 1789 1795 1811 1812 1813
1817 5 1774 1776 1811 1813 1814
1818 8 1808 1809 1810 1819 1821 1822 1829 1853
1819 3 1818 1829 1837
1820 5 1790 1791 1807 1821 1822
1821 5 1807 1808 1818 1820 1822
1822 3 1818 1820 1821
1823 8 1783 1824 1825 1854 2701 2754 2770 4896
1824 4 1823 1825 1826 4896
1825 9 1823 1824 1826 1827 1828 1848 1849 1851 1854
1826 5 1824 1825 1827 4896 4897
1827 5 1825 1826 1828 1838 4897
1828 8 1825 1827 1829 1837 1838 1839 1849 1852
1829 6 1818 1819 1828 1837 1852 1853
1830 5 1763 1769 1833 2449 2450
1831 5 1762 1798 1832 1833 1835
1832 6 1797 1798 1800 1802 1831 1835
1833 8 1762 1764 1769 1830 1831 1834 1835 2450
1834 4 1833 1835 1836 2450
1835 6 1797 1831 1832 1833 1834 1836
1836 5 1834 1835 2447 2450 2451
1837 5 1819 1828 1829 1839 1840
1838 5 1827 1828 1839 4564 4897
1839 5 1828 1837 1838 1840 4564
1840 3 1837 1839 4564
1841 6 1762 1766 1798 1799 1842 1843
1842 8 1757 1761 1799 1841 1843 1844 1846 1847
1843 5 1766 1841 1842 1846 1861
1844 9 1761 1842 1845 1847 2727 2728 2731 2735 4895
1845 3 1844 2728 2731
1846 6 1842 1843 1847 1856 1861 1862
1847 7 1842 1844 1846 1858 1862 4894 4895
1848 3 1825 1851 1854
1849 5 1825 1828 1850 1851 1852
1850 7 1804 1808 1809 1810 1849 1851 1852
1851 7 1785 1804 1825 1848 1849 1850 1854
1852 6 1810 1828 1829 1849 1850 1853
1853 4 1810 1818 1829 1852
1854 7 1783 1784 1785 1823 1825 1848 1851
1855 5 1764 1765 1856 1857 1861
1856 9 1778 1779 1846 1855 1857 1859 1860 1861 1862
1857 5 1191 1765 1855 1856 1860
1858 5 1779 1847 1859 1862 4894
1859 4 1779 1856 1858 1862
1860 4 1191 1778 1856 1857
1861 6 1764 1766 1843 1846 1855 1856
1862 5 1846 1847 1856 1858 1859
1863 8 145 148 151 1469 1864 1866 1871 1874
1864 7 144 145 1863 1866 1867 1868 1869
1865 8 1866 1867 1871 1873 1918 1929 1930 4727
1866 5 1863 1864 1865 1867 1871
1867 8 1864 1865 1866 1868 1913 1918 1920 1921
1868 5 1864 1867 1869 1898 1920
1869 5 144 1864 1868 1897 1898
1870 5 1871 1872 1875 1876 2000
1871 8 1863 1865 1866 1870 1872 1873 1874 1875
1872 6 1870 1871 1873 1996 2000 2003
1873 5 1865 1871 1872 1929 1996
1874 7 148 1336 1338 1469 1863 1871 1875
1875 6 1336 1339 1870 1871 1874 1876
1876 6 1337 1339 1342 1870 1875 2000
1877 6 1878 1879 1880 1881 1882 1883
1878 6 1877 1879 1881 1980 1987 1993
1879 8 1877 1878 1880 1937 1940 1973 1976 1993
1880 6 1877 1879 1882 1965 1976 1979
1881 6 1877 1878 1883 1884 1984 1987
1882 5 1877 1880 1883 1965 1968
1883 6 1877 1881 1882 1884 1966 1968
1884 4 1881 1883 1966 1984
1885 7 1886 1888 1889 1891 1907 2618 2620
1886 4 1885 1888 1890 1891
1887 5 1889 1891 1959 1961 2619
1888 8 1885 1886 1890 1906 1907 1908 1912 1925
1889 5 1885 1887 1891 2618 2619
1890 6 1886 1888 1891 1919 1924 1925
1891 8 1885 1886 1887 1889 1890 1917 1924 1959
1892 5 1893 1894 1897 1898 1922
1893 7 166 169 170 1892 1894 1896 1897
1894 6 170 1892 1893 1895 1912 1922
1895 5 170 196 1894 1911 1912
1896 6 144 152 166 172 1893 1897
1897 6 144 1869 1892 1893 1896 1898
1898 6 1868 1869 1892 1897 1920 1922
1899 5 1901 1904 1905 1916 1958
1900 8 1901 1902 1903 1904 1905 1943 1946 1947
1901 6 1899 1900 1902 1903 1905 1958
1902 3 1900 1901 1903
1903 15 1632 1634 1636 1719 1900 1901 1902 1946 1957 1958 1960 1962 1964 2599 2612
1904 11 1899 1900 1905 1914 1916 1930 1931 1947 1983 1985 4728
1905 4 1899 1900 1901 1904
1906 4 1888 1907 1908 1910
1907 6 1885 1888 1906 1910 2617 2620
1908 5 1888 1906 1909 1910 1912
1909 6 194 875 1908 1910 1911 1912
1910 7 875 1906 1907 1908 1909 2617 2632
1911 5 194 196 1895 1909 1912
1912 8 1888 1894 1895 1908 1909 1911 1922 1925
1913 6 1867 1914 1915 1918 1921 1924
1914 8 1904 1913 1915 1916 1917 1918 4575 4728
1915 4 1913 1914 1917 1924
1916 6 1899 1904 1914 1917 1958 1959
1917 6 1891 1914 1915 1916 1924 1959
1918 6 1865 1867 1913 1914 4575 4727
1919 6 1890 1920 1921 1923 1924 1925
1920 7 1867 1868 1898 1919 1921 1922 1923
1921 5 1867 1913 1919 1920 1924
1922 7 1892 1894 1898 1912 1920 1923 1925
1923 4 1919 1920 1922 1925
1924 7 1890 1891 1913 1915 1917 1919 1921
1925 6 1888 1890 1912 1919 1922 1923
1926 5 1927 1929 1930 1931 1933
1927 7 1926 1928 1931 1932 1933 1981 1983
1928 5 1927 1932 1981 1986 1998
1929 7 1865 1873 1926 1930 1933 1996 2003
1930 7 1865 1904 1926 1929 1931 4727 4728
1931 5 1904 1926 1927 1930 1983
1932 5 1927 1928 1933 1998 2001
1933 7 1926 1927 1929 1932 1997 2001 2003
1934 6 1495 1496 1935 1937 4520 4521
1935 6 1496 1498 1934 1936 1937 1938
1936 7 1498 1500 1935 1938 1974 4165 4168
1937 8 1879 1934 1935 1938 1939 1940 1973 4521
1938 5 1935 1936 1937 1939 1974
1939 5 1937 1938 1973 1974 1975
1940 5 1879 1937 1990 1993 4521
1941 8 1942 1943 1944 1945 1946 1947 1948 1956
1942 5 1941 1947 1948 1982 1985
1943 4 1900 1941 1946 1947
1944 5 1941 1945 1948 1969 1972
1945 8 1941 1944 1950 1952 1953 1956 1971 1972
1946 6 1900 1903 1941 1943 1956 1957
1947 6 1900 1904 1941 1942 1943 1985
1948 6 1941 1942 1944 1966 1969 1982
1949 5 1950 1951 1954 1967 1971
1950 5 1945 1949 1952 1954 1971
1951 9 1720 1727 1729 1949 1954 1967 1977 4158 4162
1952 7 1714 1716 1945 1950 1953 1954 1955
1953 4 1945 1952 1955 1956
1954 6 1716 1720 1949 1950 1951 1952
1955 7 1714 1717 1952 1953 1956 1957 4910
1956 6 1941 1945 1946 1953 1955 1957
1957 6 1719 1903 1946 1955 1956 4910
1958 6 1899 1901 1903 1916 1959 1960
1959 7 1887 1891 1916 1917 1958 1960 1961
1960 5 1903 1958 1959 1961 1962
1961 8 1887 1959 1960 1962 1963 2619 2666 2672
1962 5 1903 1960 1961 1963 1964
1963 5 1961 1962 1964 2600 2666
1964 6 1903 1962 1963 2599 2600 2666
1965 7 1880 1882 1967 1968 1970 1979 4726
1966 7 1883 1884 1948 1968 1969 1982 1984
1967 7 1949 1951 1965 1970 1971 1977 4726
1968 8 1882 1883 1965 1966 1969 1970 1971 1972
1969 5 1944 1948 1966 1968 1972
1970 4 1965 1967 1968 1971
1971 7 1945 1949 1950 1967 1968 1970 1972
1972 5 1944 1945 1968 1969 1971
1973 6 1879 1937 1939 1975 1976 1978
1974 6 1936 1938 1939 1975 4168 4725
1975 5 1939 1973 1974 1978 4725
1976 6 1879 1880 1973 1978 1979 4725
1977 6 1951 1967 4158 4168 4725 4726
1978 4 1973 1975 1976 4725
1979 5 1880 1965 1976 4725 4726
1980 6 1878 1982 1984 1986 1987 1993
1981 5 1927 1928 1982 1983 1986
1982 9 1942 1948 1966 1980 1981 1983 1984 1985 1986
1983 6 1904 1927 1931 1981 1982 1985
1984 6 1881 1884 1966 1980 1982 1987
1985 5 1904 1942 1947 1982 1983
1986 7 1928 1980 1981 1982 1993 1995 1998
1987 4 1878 1881 1980 1984
1988 6 1341 1494 1989 1991 1999 2002
1989 6 1494 1988 1990 1991 1992 1994
1990 7 1494 1940 1989 1992 1993 4520 4521
1991 4 1988 1989 1994 2002
1992 5 1989 1990 1993 1994 1995
1993 8 1878 1879 1940 1980 1986 1990 1992 1995
1994 6 1989 1991 1992 1995 1998 2002
1995 5 1986 1992 1993 1994 1998
1996 4 1872 1873 1929 2003
1997 4 1933 2000 2001 2003
1998 7 1928 1932 1986 1994 1995 2001 2002
1999 5 1341 1342 1988 2000 2002
2000 9 1342 1870 1872 1876 1997 1999 2001 2002 2003
2001 6 1932 1933 1997 1998 2000 2002
2002 7 1988 1991 1994 1998 1999 2000 2001
2003 6 1872 1929 1933 1996 1997 2000
2004 5 2009 2037 2078 2122 2123
2005 4 2008 2095 2097 4866
2006 3 2007 2008 2009
2007 7 2006 2008 2009 2012 2013 2121 4865
2008 8 2005 2006 2007 2009 2091 2095 4865 4866
2009 10 2004 2006 2007 2008 2072 2078 2091 2093 2121 2122
2010 5 176 177 2011 2012 2013
2011 7 177 178 2010 2013 2014 2015 4865
2012 7 176 2007 2010 2013 2117 2118 2121
2013 5 2007 2010 2011 2012 4865
2014 5 178 181 182 2011 2015
2015 7 182 2011 2014 2016 2017 2097 4865
2016 6 182 2015 2017 2018 2019 4695
2017 5 2015 2016 2018 2094 2097
2018 6 2016 2017 2019 2021 2092 2094
2019 6 2016 2018 2020 2021 2022 4695
2020 5 120 569 2019 2022 4695
2021 4 2018 2019 2022 2092
2022 7 569 570 571 2019 2020 2021 2092
2023 6 516 546 2027 2071 4871 4873
2024 6 2025 2026 2055 2059 2075 2076
2025 7 2024 2026 2033 2055 2129 2132 4874
2026 9 2024 2025 2027 2067 2076 4868 4871 4872 4874
2027 5 2023 2026 2067 2071 4871
2028 5 2029 2030 2032 2033 2132
2029 6 2028 2030 2032 2034 2111 4876
2030 9 540 541 546 1256 2028 2029 2031 2033 2111
2031 6 540 580 1256 1258 1259 2030
2032 7 2028 2029 2034 2130 2131 2132 2133
2033 7 546 2025 2028 2030 2132 4873 4874
2034 5 2029 2032 2133 4875 4876
2035 5 2036 2039 2040 2044 2047
2036 5 2035 2038 2039 2040 2124
2037 7 2004 2038 2041 2122 2123 2125 2127
2038 6 2036 2037 2040 2041 2124 2125
2039 6 2035 2036 2047 2124 2126 4870
2040 8 2035 2036 2038 2041 2043 2044 2117 2119
2041 5 2037 2038 2040 2119 2122
2042 4 2043 2045 2046 2084
2043 4 2040 2042 2044 2046
2044 5 2035 2040 2043 2046 2047
2045 5 2042 2046 2048 2081 2084
2046 7 2042 2043 2044 2045 2047 2048 4869
2047 6 2035 2039 2044 2046 4869 4870
2048 6 2045 2046 2050 2081 2082 4869
2049 6 2052 2053 2089 2101 2102 2134
2050 8 2048 2051 2052 2053 2082 2083 2087 4869
2051 5 2050 2052 2056 2058 4869
2052 6 2049 2050 2051 2053 2056 2134
2053 5 2049 2050 2052 2087 2089
2054 5 2055 2056 2058 2059 2130
2055 6 2024 2025 2054 2059 2129 2130
2056 6 2051 2052 2054 2058 2130 2134
2057 5 2058 2059 2075 4869 4870
2058 6 2051 2054 2056 2057 2059 4869
2059 6 2024 2054 2055 2057 2058 2075
2060 5 521 568 2061 2064 4596
2061 6 2060 2062 2064 2066 2096 4596
2062 5 2061 2063 2065 2066 2096
2063 5 2062 2065 2093 2095 2096
2064 6 566 568 571 2060 2061 2096
2065 6 2062 2063 2066 2069 2070 2093
2066 6 520 2061 2062 2065 2070 4596
2067 7 2026 2027 2068 2071 2073 4867 4868
2068 4 2067 2069 2071 2073
2069 7 2065 2068 2070 2071 2072 2073 2093
2070 5 520 2065 2066 2069 2071
2071 9 516 520 546 2023 2027 2067 2068 2069 2070
2072 5 2009 2069 2073 2078 2093
2073 6 2067 2068 2069 2072 2078 4867
2074 8 2075 2076 2077 2078 2125 2128 4867 4868
2075 8 2024 2057 2059 2074 2076 2126 2128 4870
2076 5 2024 2026 2074 2075 4868
2077 5 2074 2078 2123 2125 2127
2078 8 2004 2009 2072 2073 2074 2077 2123 4867
2079 4 2080 2081 2084 2370
2080 6 2079 2081 2083 2086 2367 2370
2081 7 2045 2048 2079 2080 2082 2083 2084
2082 4 2048 2050 2081 2083
2083 6 2050 2080 2081 2082 2086 2087
2084 6 2042 2045 2079 2081 2369 2370
2085 8 2089 2090 2101 2103 2305 2318 4522 4523
2086 6 2080 2083 2087 2088 2324 2367
2087 6 2050 2053 2083 2086 2088 2089
2088 5 2086 2087 2089 2090 2324
2089 7 2049 2053 2085 2087 2088 2090 2101
2090 5 2085 2088 2089 2318 2324
2091 4 2008 2009 2093 2095
2092 5 571 2018 2021 2022 2094
2093 7 2009 2063 2065 2069 2072 2091 2095
2094 6 571 2017 2018 2092 2096 2097
2095 7 2005 2008 2063 2091 2093 2096 2097
2096 8 571 2061 2062 2063 2064 2094 2095 2097
2097 8 2005 2015 2017 2094 2095 2096 4865 4866
2098 9 2099 2100 2102 2103 2105 2108 2131 2133 4522
2099 5 2098 2104 2105 2109 2133
2100 6 2098 2106 2108 2383 4522 4523
2101 5 2049 2085 2089 2102 2103
2102 6 2049 2098 2101 2103 2131 2134
2103 5 2085 2098 2101 2102 4522
2104 4 2099 2105 2109 4875
2105 8 2098 2099 2104 2107 2108 2110 2112 4875
2106 5 2100 2107 2108 2115 2383
2107 5 2105 2106 2108 2112 2115
2108 5 2098 2100 2105 2106 2107
2109 4 2099 2104 2133 4875
2110 6 2105 2111 2112 2113 2114 4875
2111 7 1256 2029 2030 2110 2113 4875 4876
2112 5 2105 2107 2110 2114 2115
2113 6 1256 1257 1263 2110 2111 2114
2114 7 1263 1265 2110 2112 2113 2115 2116
2115 6 2106 2107 2112 2114 2116 2383
2116 5 1264 1265 2114 2115 2383
2117 5 2012 2040 2118 2119 2120
2118 4 2012 2117 2120 2121
2119 5 2040 2041 2117 2120 2122
2120 5 2117 2118 2119 2121 2122
2121 6 2007 2009 2012 2118 2120 2122
2122 7 2004 2009 2037 2041 2119 2120 2121
2123 5 2004 2037 2077 2078 2127
2124 6 2036 2038 2039 2125 2126 2128
2125 7 2037 2038 2074 2077 2124 2127 2128
2126 5 2039 2075 2124 2128 4870
2127 4 2037 2077 2123 2125
2128 5 2074 2075 2124 2125 2126
2129 4 2025 2055 2130 2132
2130 8 2032 2054 2055 2056 2129 2131 2132 2134
2131 6 2032 2098 2102 2130 2133 2134
2132 6 2025 2028 2032 2033 2129 2130
2133 7 2032 2034 2098 2099 2109 2131 4875
2134 6 2049 2052 2056 2102 2130 2131
2135 5 2136 2137 2230 2243 2246
2136 8 2135 2137 2138 2139 2141 2219 2220 2246
2137 6 2135 2136 2218 2219 2228 2230
2138 3 2136 2139 2141
2139 6 2136 2138 2140 2141 2246 4663
2140 7 34 2139 2141 2142 4662 4663 4664
2141 11 27 55 102 103 106 2136 2138 2139 2140 2142 2220
2142 4 34 55 2140 2141
2143 4 2147 2149 2150 2280
2144 7 2145 2146 2148 2150 2160 2164 2186
2145 7 2144 2147 2148 2149 2150 2273 2280
2146 7 2144 2148 2164 2166 2180 2251 2275
2147 4 2143 2145 2149 2280
2148 5 2144 2145 2146 2273 2275
2149 4 2143 2145 2147 2150
2150 5 2143 2144 2145 2149 2186
2151 10 35 97 100 2152 2153 2157 2212 2214 2254 2264
2152 4 2151 2153 2178 2254
2153 6 2151 2152 2155 2156 2157 2178
2154 6 2155 2156 2158 2239 2261 2263
2155 5 2153 2154 2156 2157 2158
2156 9 2153 2154 2155 2177 2178 2179 2238 2239 2274
2157 7 2151 2153 2155 2158 2261 2262 2264
2158 4 2154 2155 2157 2261
2159 8 2160 2161 2162 2184 2185 2186 2266 2267
2160 5 2144 2159 2162 2164 2186
2161 8 2159 2162 2164 2165 2166 2266 2267 2270
2162 4 2159 2160 2161 2164
2163 5 2165 2207 2268 2270 2271
2164 6 2144 2146 2160 2161 2162 2166
2165 7 2161 2163 2166 2207 2208 2256 2270
2166 7 2146 2161 2164 2165 2248 2251 2256
2167 5 2168 2169 2170 2194 2202
2168 5 2167 2170 2172 2174 2186
2169 6 2167 2170 2171 2172 2173 2202
2170 4 2167 2168 2169 2172
2171 5 2169 2173 2202 2203 2204
2172 7 2168 2169 2170 2173 2174 2175 2189
2173 5 2169 2171 2172 2175 2204
2174 5 2168 2172 2186 2188 2189
2175 6 2172 2173 2187 2189 2204 2206
2176 6 2177 2179 2181 2182 2183 2274
2177 6 2156 2176 2178 2179 2182 2255
2178 6 2152 2153 2156 2177 2254 2255
2179 4 2156 2176 2177 2274
2180 6 2146 2181 2183 2249 2251 2275
2181 6 2176 2180 2182 2183 2249 2253
2182 6 2176 2177 2181 2252 2253 2255
2183 7 2176 2180 2181 2274 2275 2278 2279
2184 5 2159 2185 2186 2188 4661
2185 6 2159 2184 2266 2267 4660 4661
2186 8 2144 2150 2159 2160 2168 2174 2184 2188
2187 4 2175 2189 2206 4660
2188 6 2174 2184 2186 2189 2190 4661
2189 7 2172 2174 2175 2187 2188 2190 4660
2190 4 2188 2189 4660 4661
2191 7 2192 2193 2194 2195 2196 2197 2222
2192 6 2191 2195 2198 2216 2221 2222
2193 5 2191 2194 2222 2223 2231
2194 10 2167 2191 2193 2195 2196 2201 2202 2203 2224 2231
2195 7 2191 2192 2194 2196 2197 2198 3552
2196 4 2191 2194 2195 2197
2197 3 2191 2195 2196
2198 4 2192 2195 2221 3552
2199 4 2200 2201 2205 2206
2200 5 2199 2201 2206 2227 4660
2201 8 2194 2199 2200 2203 2204 2205 2224 2227
2202 5 2167 2169 2171 2194 2203
2203 5 2171 2194 2201 2202 2204
2204 7 2171 2173 2175 2201 2203 2205 2206
2205 4 2199 2201 2204 2206
2206 7 2175 2187 2199 2200 2204 2205 4660
2207 9 2163 2165 2208 2209 2210 2211 2241 2242 2271
2208 5 2165 2207 2211 2250 2256
2209 9 2207 2210 2211 2212 2213 2214 2240 2241 4664
2210 3 2207 2209 2211
2211 8 2207 2208 2209 2210 2214 2250 2252 2256
2212 5 35 2151 2209 2213 2214
2213 5 33 35 2209 2212 4664
2214 7 2151 2209 2211 2212 2252 2254 2255
2215 8 23 27 2216 2217 2218 2219 2220 2221
2216 5 2192 2215 2217 2221 2222
2217 6 2215 2216 2218 2222 2225 2226
2218 6 2137 2215 2217 2219 2225 2228
2219 5 2136 2137 2215 2218 2220
2220 5 27 2136 2141 2215 2219
2221 6 23 2192 2198 2215 2216 3552
2222 7 2191 2192 2193 2216 2217 2223 2226
2223 5 2193 2222 2224 2226 2231
2224 9 2194 2201 2223 2226 2227 2228 2229 2230 2231
2225 4 2217 2218 2226 2228
2226 6 2217 2222 2223 2224 2225 2228
2227 10 2200 2201 2224 2229 2243 2244 2265 2268 2272 4660
2228 6 2137 2218 2224 2225 2226 2230
2229 4 2224 2227 2230 2243
2230 6 2135 2137 2224 2228 2229 2243
2231 4 2193 2194 2223 2224
2232 5 2233 2234 2235 2236 2237
2233 6 2232 2234 2235 2239 2259 2263
2234 8 2232 2233 2235 2236 2237 2238 2239 2259
2235 5 2232 2233 2234 2236 2259
2236 4 2232 2234 2235 2237
2237 3 2232 2234 2236
2238 4 2156 2234 2239 2274
2239 6 2154 2156 2233 2234 2238 2263
2240 6 2209 2241 2246 2247 4662 4664
2241 5 2207 2209 2240 2242 2247
2242 5 2207 2241 2247 2271 4540
2243 8 2135 2227 2229 2230 2244 2246 4539 4540
2244 5 2227 2243 2245 2268 4540
2245 4 2244 2268 2271 4540
2246 9 2135 2136 2139 2240 2243 2247 4539 4662 4663
2247 6 2240 2241 2242 2246 4539 4540
2248 5 2166 2249 2250 2251 2256
2249 6 2180 2181 2248 2250 2251 2253
2250 7 2208 2211 2248 2249 2252 2253 2256
2251 6 2146 2166 2180 2248 2249 2275
2252 6 2182 2211 2214 2250 2253 2255
2253 5 2181 2182 2249 2250 2252
2254 5 2151 2152 2178 2214 2255
2255 6 2177 2178 2182 2214 2252 2254
2256 6 2165 2166 2208 2211 2248 2250
2257 6 84 96 97 2258 2259 2264
2258 4 2257 2259 2260 2264
2259 8 84 2233 2234 2235 2257 2258 2260 2263
2260 5 2258 2259 2262 2263 2264
2261 5 2154 2157 2158 2262 2263
2262 5 2157 2260 2261 2263 2264
2263 7 2154 2233 2239 2259 2260 2261 2262
2264 7 97 2151 2157 2257 2258 2260 2262
2265 5 2227 2266 2268 2269 2272
2266 9 2159 2161 2185 2265 2267 2269 2270 2272 4660
2267 4 2159 2161 2185 2266
2268 8 2163 2227 2244 2245 2265 2269 2270 2271
2269 4 2265 2266 2268 2270
2270 6 2161 2163 2165 2266 2268 2269
2271 6 2163 2207 2242 2245 2268 4540
2272 4 2227 2265 2266 4660
2273 5 2145 2148 2275 2276 2280
2274 9 2156 2176 2179 2183 2238 2276 2277 2278 2280
2275 8 2146 2148 2180 2183 2251 2273 2276 2279
2276 6 2273 2274 2275 2277 2279 2280
2277 4 2274 2276 2278 2279
2278 4 2183 2274 2277 2279
2279 5 2183 2275 2276 2277 2278
2280 6 2143 2145 2147 2273 2274 2276
2281 8 1272 2282 2283 2284 2286 2287 2311 2313
2282 8 1272 1276 1278 2281 2283 2284 2419 2421
2283 5 2281 2282 2284 2287 2288
2284 6 2281 2282 2283 2285 2288 2421
2285 8 2284 2286 2288 2390 2393 2421 2422 2425
2286 7 2281 2285 2287 2288 2313 2393 4886
2287 4 2281 2283 2286 2288
2288 5 2283 2284 2285 2286 2287
2289 9 2290 2291 2294 2296 2310 2342 2427 2428 4889
2290 8 2289 2291 2292 2293 2310 2313 2314 4886
2291 4 2289 2290 2292 2294
2292 4 2290 2291 2293 2294
2293 5 2290 2292 2294 4886 4887
2294 7 2289 2291 2292 2293 4887 4888 4889
2295 5 2296 2297 2299 2342 2428
2296 5 2289 2295 2310 2342 2428
2297 7 2295 2299 2301 2342 2343 2344 2395
2298 6 2299 2300 2301 2400 2401 2429
2299 7 2295 2297 2298 2301 2428 2429 2430
2300 4 2298 2401 2429 4884
2301 9 2297 2298 2299 2394 2395 2400 4880 4881 4882
2302 6 2303 2307 2308 2353 2382 2384
2303 6 2302 2308 2382 2384 2385 4523
2304 5 2306 2307 2319 2322 2358
2305 6 2085 2306 2308 2318 2319 4523
2306 5 2304 2305 2307 2308 2319
2307 7 2302 2304 2306 2308 2353 2355 2358
2308 6 2302 2303 2305 2306 2307 4523
2309 6 2310 2311 2312 2313 2314 2315
2310 8 2289 2290 2296 2309 2312 2314 2316 2342
2311 5 1272 2281 2309 2313 2315
2312 4 2309 2310 2315 2316
2313 7 2281 2286 2290 2309 2311 2314 4886
2314 4 2290 2309 2310 2313
2315 7 1272 2309 2311 2312 2316 2341 2386
2316 5 2310 2312 2315 2341 2342
2317 6 2320 2321 2322 2323 2366 2368
2318 5 2085 2090 2305 2319 2324
2319 7 2304 2305 2306 2318 2320 2322 2324
2320 6 2317 2319 2322 2323 2324 2367
2321 6 2317 2322 2366 2414 2417 2418
2322 8 2304 2317 2319 2320 2321 2357 2358 2414
2323 4 2317 2320 2367 2368
2324 7 2086 2088 2090 2318 2319 2320 2367
2325 3 2326 2327 2328
2326 3 2325 2327 2328
2327 5 2325 2326 2328 2360 2362
2328 12 2325 2326 2327 2329 2345 2346 2348 2360 2412 2413 2415 2416
2329 1 2328
2330 15 2331 2334 2335 2336 2377 2378 2379 2380 2459 2460 2462 2465 2468 2508 2512
2331 9 2330 2333 2334 2407 2410 2433 2435 2437 2468
2332 5 2333 2405 2406 2408 2410
2333 6 2331 2332 2334 2373 2408 2410
2334 6 2330 2331 2333 2335 2336 2373
2335 6 2330 2334 2336 2373 2375 2377
2336 3 2330 2334 2335
2337 3 2338 2339 2341
2338 6 2337 2339 2340 2341 2343 2399
2339 7 2337 2338 2341 2351 2381 2397 2399
2340 4 2338 2341 2342 2343
2341 10 2315 2316 2337 2338 2339 2340 2342 2351 2381 2386
2342 10 2289 2295 2296 2297 2310 2316 2340 2341 2343 2344
2343 8 2297 2338 2340 2342 2344 2394 2395 2399
2344 3 2297 2342 2343
2345 5 2328 2346 2347 2348 2349
2346 4 2328 2345 2347 2416
2347 7 2345 2346 2349 2350 2351 2381 2416
2348 5 2328 2345 2349 2350 2396
2349 4 2345 2347 2348 2350
2350 6 2347 2348 2349 2351 2396 2397
2351 7 2339 2341 2347 2350 2381 2397 2416
2352 6 2353 2354 2355 2356 2381 2382
2353 6 2302 2307 2352 2355 2356 2382
2354 6 2352 2356 2357 2381 2414 2415
2355 6 2307 2352 2353 2356 2357 2358
2356 5 2352 2353 2354 2355 2357
2357 6 2322 2354 2355 2356 2358 2414
2358 5 2304 2307 2322 2355 2357
2359 6 2360 2361 2362 2363 2364 2365
2360 7 2327 2328 2359 2361 2362 2412 2417
2361 8 2359 2360 2365 2366 2369 2371 2372 2417
2362 4 2327 2359 2360 2363
2363 3 2359 2362 2364
2364 4 2359 2363 2365 2369
2365 4 2359 2361 2364 2369
2366 6 2317 2321 2361 2368 2372 2417
2367 8 2080 2086 2320 2323 2324 2368 2370 2372
2368 5 2317 2323 2366 2367 2372
2369 6 2084 2361 2364 2365 2370 2371
2370 7 2079 2080 2084 2367 2369 2371 2372
2371 4 2361 2369 2370 2372
2372 6 2361 2366 2367 2368 2370 2371
2373 8 2333 2334 2335 2374 2375 2408 4889 4891
2374 4 2373 2375 2376 4889
2375 5 2335 2373 2374 2376 2377
2376 7 2374 2375 2377 2378 2380 4889 4893
2377 5 2330 2335 2375 2376 2380
2378 5 2330 2376 2379 2380 4893
2379 4 2330 2378 2512 4893
2380 4 2330 2376 2377 2378
2381 10 2339 2341 2347 2351 2352 2354 2382 2386 2415 2416
2382 7 2302 2303 2352 2353 2381 2384 2386
2383 10 1264 1267 2100 2106 2115 2116 2384 2385 2386 4523
2384 6 2302 2303 2382 2383 2385 2386
2385 4 2303 2383 2384 4523
2386 9 1267 1272 1273 2315 2341 2381 2382 2383 2384
2387 4 2388 2389 2390 2393
2388 5 2387 2389 2393 4886 4888
2389 6 2387 2388 2390 2391 2392 4888
2390 9 1310 1312 2285 2387 2389 2392 2393 2425 2426
2391 5 2389 2392 4888 4892 4893
2392 7 1312 1317 2389 2390 2391 2512 4893
2393 6 2285 2286 2387 2388 2390 4886
2394 6 2301 2343 2395 2399 4879 4881
2395 4 2297 2301 2343 2394
2396 6 2348 2350 2397 2398 4877 4878
2397 6 2339 2350 2351 2396 2399 4877
2398 3 2396 2403 4878
2399 7 2338 2339 2343 2394 2397 4877 4879
2400 5 2298 2301 2401 4882 4883
2401 5 2298 2300 2400 4883 4884
2402 3 2403 2404 4883
2403 5 2398 2402 2404 4878 4880
2404 4 2402 2403 4880 4883
2405 6 2332 2406 2407 2409 2410 2411
2406 6 2332 2405 2408 2409 4890 4891
2407 4 2331 2405 2410 2411
2408 5 2332 2333 2373 2406 4891
2409 7 2405 2406 2411 2427 4884 4885 4890
2410 5 2331 2332 2333 2405 2407
2411 4 2405 2407 2409 4884
2412 5 2328 2360 2413 2417 2418
2413 5 2328 2412 2414 2415 2418
2414 7 2321 2322 2354 2357 2413 2415 2418
2415 6 2328 2354 2381 2413 2414 2416
2416 6 2328 2346 2347 2351 2381 2415
2417 6 2321 2360 2361 2366 2412 2418
2418 5 2321 2412 2413 2414 2417
2419 6 1277 1278 2282 2420 2421 2422
2420 9 1241 1277 1278 1279 2419 2422 2423 2424 4541
2421 5 2282 2284 2285 2419 2422
2422 6 2285 2419 2420 2421 2424 2425
2423 5 1241 1244 2420 2424 2426
2424 5 2420 2422 2423 2425 2426
2425 5 2285 2390 2422 2424 2426
2426 7 1244 1310 1311 2390 2423 2424 2425
2427 10 2289 2409 2428 2430 2431 2432 4885 4889 4890 4891
2428 6 2289 2295 2296 2299 2427 2430
2429 7 2298 2299 2300 2430 2431 2432 4884
2430 5 2299 2427 2428 2429 2432
2431 5 2427 2429 2432 4884 4885
2432 4 2427 2429 2430 2431
2433 5 2331 2434 2435 2436 2468
2434 5 2433 2436 2466 2468 2471
2435 4 2331 2433 2436 2437
2436 6 2433 2434 2435 2437 2438 2466
2437 7 2331 2435 2436 2438 2439 2472 2476
2438 6 2436 2437 2439 2466 2472 2478
2439 3 2437 2438 2472
2440 9 1178 1180 1181 1182 1248 2442 2558 2559 4745
2441 6 1196 1246 1249 1251 2443 2549
2442 6 1248 1251 2440 2443 4745 4748
2443 8 1251 2441 2442 2444 2549 2550 4735 4748
2444 6 2443 4571 4572 4735 4748 4749
2445 6 2446 2447 2451 2453 2556 2557
2446 6 2445 2449 2450 2451 2556 2560
2447 6 1836 2445 2448 2451 2453 2454
2448 3 2447 2454 2455
2449 8 1322 1324 1763 1830 2446 2450 2560 4518
2450 7 1830 1833 1834 1836 2446 2449 2451
2451 5 1836 2445 2446 2447 2450
2452 5 2453 2454 2455 2458 2555
2453 6 2445 2447 2452 2454 2555 2557
2454 5 2447 2448 2452 2453 2455
2455 4 2448 2452 2454 2458
2456 3 2457 2559 4745
2457 5 2456 2458 2559 4745 4747
2458 5 2452 2455 2457 2555 2559
2459 6 2330 2460 2461 2462 2508 2510
2460 3 2330 2459 2462
2461 5 2459 2462 2463 2464 2510
2462 6 2330 2459 2460 2461 2464 2465
2463 6 2461 2464 2465 2497 2510 2533
2464 4 2461 2462 2463 2465
2465 9 2330 2462 2463 2464 2468 2470 2522 2533 2537
2466 8 2434 2436 2438 2469 2471 2478 4569 4570
2467 3 2470 2486 2522
2468 8 2330 2331 2433 2434 2465 2469 2470 2471
2469 7 2466 2468 2470 2471 2486 2487 4570
2470 6 2465 2467 2468 2469 2486 2522
2471 4 2434 2466 2468 2469
2472 8 2437 2438 2439 2473 2474 2475 2476 2478
2473 9 2472 2474 2475 2476 2487 2489 2491 4569 4570
2474 5 2472 2473 2475 2478 4569
2475 4 2472 2473 2474 2476
2476 6 2437 2472 2473 2475 2477 2491
2477 3 2476 2485 2491
2478 5 2438 2466 2472 2474 4569
2479 4 2480 2482 3669 3726
2480 7 2479 2481 2482 2484 3653 3655 3726
2481 5 2480 2482 2483 2484 2490
2482 8 2479 2480 2481 2486 2488 2490 3667 3669
2483 5 2481 2484 2485 2490 2492
2484 6 2480 2481 2483 2485 3655 3656
2485 9 2477 2483 2484 2489 2491 2492 3649 3652 3656
2486 9 2467 2469 2470 2482 2487 2488 2490 2522 3667
2487 6 2469 2473 2486 2489 2490 4570
2488 3 2482 2486 2490
2489 7 2473 2485 2487 2490 2491 2492 4570
2490 8 2481 2482 2483 2486 2487 2488 2489 2492
2491 5 2473 2476 2477 2485 2489
2492 4 2483 2485 2489 2490
2493 5 2494 2495 2496 2498 2503
2494 6 2493 2495 2497 2498 2507 2511
2495 6 2493 2494 2500 2501 2503 2507
2496 6 2493 2498 2499 2503 2504 2534
2497 7 2463 2494 2498 2499 2510 2511 2533
2498 5 2493 2494 2496 2497 2499
2499 7 2496 2497 2498 2532 2533 2534 2535
2500 8 1283 1316 1319 2495 2501 2506 2507 2513
2501 7 1282 1283 2495 2500 2502 2503 2549
2502 4 2501 2503 2547 2549
2503 7 2493 2495 2496 2501 2502 2504 2547
2504 7 2496 2503 2505 2515 2516 2534 2547
2505 5 2504 2514 2515 2545 2547
2506 4 1318 1319 2500 2513
2507 5 2494 2495 2500 2511 2513
2508 6 2330 2459 2509 2510 2512 2513
2509 4 2508 2510 2511 2513
2510 7 2459 2461 2463 2497 2508 2509 2511
2511 6 2494 2497 2507 2509 2510 2513
2512 8 1317 1318 2330 2379 2392 2508 2513 4893
2513 8 1318 2500 2506 2507 2508 2509 2511 2512
2514 6 2505 2515 2517 2545 4739 4740
2515 6 2504 2505 2514 2516 4573 4739
2516 4 2504 2515 2534 4573
2517 6 2514 2530 2531 2545 2548 4740
2518 5 2525 2527 4574 4739 4740
2519 6 2520 2523 4741 4742 4743 4744
2520 5 2519 2522 2523 2524 4742
2521 6 2523 2524 2529 4574 4743 4744
2522 12 2465 2467 2470 2486 2520 2524 2536 2537 3664 3665 3667 4742
2523 5 2519 2520 2521 2524 4744
2524 6 2520 2521 2522 2523 2529 3664
2525 5 2518 2526 2527 2531 4740
2526 7 2525 2527 2528 2531 2541 2543 3690
2527 8 2518 2525 2526 2528 2529 3728 3729 4574
2528 4 2526 2527 3690 3728
2529 7 2521 2524 2527 3664 3729 3731 4574
2530 6 2517 2531 2539 2540 2548 4738
2531 7 2517 2525 2526 2530 2540 2541 4740
2532 5 2499 2533 2535 2536 2537
2533 6 2463 2465 2497 2499 2532 2537
2534 8 2496 2499 2504 2516 2535 4573 4741 4743
2535 6 2499 2532 2534 2536 4741 4742
2536 5 2522 2532 2535 2537 4742
2537 5 2465 2522 2532 2533 2536
2538 7 2539 2541 2542 2552 2553 2554 4738
2539 5 2530 2538 2540 2541 4738
2540 4 2530 2531 2539 2541
2541 9 2526 2531 2538 2539 2540 2542 2543 2544 3690
2542 6 2538 2541 2543 3689 3692 3694
2543 6 2526 2541 2542 2544 3690 3692
2544 2 2541 2543
2545 6 2505 2514 2517 2547 2548 2551
2546 6 2548 2549 2550 2551 2553 4737
2547 7 2502 2503 2504 2505 2545 2549 2551
2548 7 2517 2530 2545 2546 2551 4737 4738
2549 12 1196 1282 1284 1286 2441 2443 2501 2502 2546 2547 2550 2551
2550 7 2443 2546 2549 2553 2554 4735 4736
2551 5 2545 2546 2547 2548 2549
2552 4 2538 2553 4737 4738
2553 6 2538 2546 2550 2552 2554 4737
2554 5 2538 2550 2553 4572 4736
2555 6 2452 2453 2458 2557 2559 4519
2556 4 2445 2446 2557 2560
2557 6 2445 2453 2555 2556 2560 4519
2558 5 1180 1305 1326 2440 2559
2559 9 1326 2440 2456 2457 2458 2555 2558 4519 4745
2560 6 2446 2449 2556 2557 4518 4519
2561 5 2562 2563 2564 2567 2576
2562 5 2561 2563 2564 2593 2594
2563 9 2561 2562 2566 2567 2573 2593 2654 2656 4927
2564 5 2561 2562 2576 2577 2594
2565 7 2566 2567 2578 2580 2652 2657 2658
2566 5 2563 2565 2567 2652 2654
2567 6 2561 2563 2565 2566 2576 2580
2568 6 1689 2569 2571 2572 4640 4921
2569 6 2568 2570 2572 2573 4921 4928
2570 6 2569 2572 2573 2589 4601 4602
2571 7 2 3 1689 2568 2572 4537 4637
2572 6 3 2568 2569 2570 2571 4602
2573 7 2563 2569 2570 2589 2593 4927 4928
2574 8 830 2575 2578 2579 2581 2628 4979 4980
2575 5 2574 2576 2580 2581 4980
2576 7 2561 2564 2567 2575 2577 2580 4980
2577 6 899 900 2564 2576 2594 4980
2578 6 2565 2574 2579 2580 2581 2658
2579 6 2574 2578 2627 2628 2658 4600
2580 6 2565 2567 2575 2576 2578 2581
2581 4 2574 2575 2578 2580
2582 6 1666 1669 2583 2584 2586 2638
2583 5 2582 2585 2586 2637 2638
2584 5 1666 2582 2586 2587 4915
2585 7 2583 2586 2605 2637 2653 2655 2659
2586 7 2582 2583 2584 2585 2587 2588 2659
2587 6 2584 2586 2588 2659 2660 4915
2588 3 2586 2587 2659
2589 5 2570 2573 2591 2593 4601
2590 6 878 2591 2592 4538 4601 4602
2591 5 2589 2590 2592 2593 4601
2592 7 878 882 2590 2591 2593 2595 4984
2593 8 2562 2563 2573 2589 2591 2592 2594 2595
2594 6 899 2562 2564 2577 2593 2595
2595 5 899 2592 2593 2594 4984
2596 5 2597 2614 4603 4923 4924
2597 8 2596 2599 2601 2602 2612 2614 4923 4925
2598 6 2602 2647 2669 2671 4923 4924
2599 7 1636 1903 1964 2597 2600 2601 2612
2600 7 1963 1964 2599 2601 2602 2666 2669
2601 4 2597 2599 2600 2602
2602 6 2597 2598 2600 2601 2669 4923
2603 6 2604 2605 2609 2610 2637 2643
2604 7 2603 2605 2610 2657 4603 4925 4926
2605 6 2585 2603 2604 2637 2653 2657
2606 5 1637 1638 1713 2607 2608
2607 7 1638 2606 2608 2609 2611 2613 2615
2608 8 1654 1655 1713 2606 2607 2609 2641 2643
2609 6 2603 2607 2608 2610 2615 2643
2610 6 2603 2604 2609 2615 4605 4925
2611 6 1636 1638 2607 2612 2613 4605
2612 7 1636 1903 2597 2599 2611 4605 4925
2613 5 2607 2611 2615 4604 4605
2614 4 2596 2597 4603 4925
2615 6 2607 2609 2610 2613 4604 4605
2616 5 2623 2634 2636 2668 2670
2617 6 1907 1910 2620 2622 2632 2634
2618 5 1885 1889 2619 2620 2621
2619 6 1887 1889 1961 2618 2621 2672
2620 6 1885 1907 2617 2618 2621 2622
2621 7 2618 2619 2620 2622 2623 2665 2672
2622 5 2617 2620 2621 2623 2634
2623 6 2616 2621 2622 2634 2665 2668
2624 4 2625 2626 2627 2629
2625 6 2624 2626 2629 2648 2649 4924
2626 6 2624 2625 2627 2628 2645 2649
2627 7 2579 2624 2626 2628 2629 4599 4600
2628 8 831 888 2574 2579 2626 2627 2645 4979
2629 7 2624 2625 2627 4599 4600 4603 4924
2630 7 873 883 890 2631 2633 2650 2651
2631 7 2630 2632 2633 2636 2647 2650 2651
2632 8 875 1910 2617 2631 2633 2634 2635 2636
2633 7 869 873 2630 2631 2632 2635 2636
2634 6 2616 2617 2622 2623 2632 2636
2635 4 869 875 2632 2633
2636 8 2616 2631 2632 2633 2634 2647 2670 2671
2637 7 2583 2585 2603 2605 2638 2642 2643
2638 9 1669 2582 2583 2637 2639 2640 2641 2642 2644
2639 3 2638 2640 2644
2640 6 1663 1669 2638 2639 2644 4630
2641 7 1655 1656 2608 2638 2642 2643 2644
2642 4 2637 2638 2641 2643
2643 6 2603 2608 2609 2637 2641 2642
2644 7 1656 1657 1663 2638 2639 2640 2641
2645 6 831 888 2626 2628 2646 2649
2646 6 886 888 2645 2649 2650 2651
2647 7 2598 2631 2636 2648 2650 2671 4924
2648 5 2625 2647 2649 2650 4924
2649 6 2625 2626 2645 2646 2648 2650
2650 7 2630 2631 2646 2647 2648 2649 2651
2651 6 883 886 2630 2631 2646 2650
2652 5 2565 2566 2653 2654 2657
2653 6 2585 2605 2652 2654 2655 2657
2654 6 2563 2566 2652 2653 2655 2656
2655 6 2585 2653 2654 2656 2659 2661
2656 6 2563 2654 2655 2661 2663 4927
2657 8 2565 2604 2605 2652 2653 2658 4598 4603
2658 6 2565 2578 2579 2657 4598 4600
2659 7 2585 2586 2587 2588 2655 2660 2661
2660 7 2587 2659 2661 2662 4915 4916 4918
2661 6 2655 2656 2659 2660 2662 2663
2662 6 2660 2661 2663 2664 4918 4919
2663 5 2656 2661 2662 2664 4927
2664 5 2662 2663 4919 4927 4928
2665 6 2621 2623 2666 2667 2668 2672
2666 8 1961 1963 1964 2600 2665 2667 2669 2672
2667 4 2665 2666 2668 2669
2668 7 2616 2623 2665 2667 2669 2670 2671
2669 7 2598 2600 2602 2666 2667 2668 2671
2670 4 2616 2636 2668 2671
2671 6 2598 2636 2647 2668 2669 2670
2672 5 1961 2619 2621 2665 2666
2673 6 2674 2676 2697 2708 2746 2748
2674 5 2673 2676 2677 2678 2748
2675 8 1770 1774 2676 2678 2706 2709 2722 2725
2676 6 2673 2674 2675 2678 2708 2709
2677 6 2674 2678 2684 2723 2747 2748
2678 6 2674 2675 2676 2677 2722 2723
2679 5 2680 2718 2721 4439 4990
2680 5 2679 2681 2718 4985 4990
2681 5 2680 2682 2718 2720 4985
2682 4 2681 2720 2771 4985
2683 4 2684 2685 2686 4990
2684 9 2677 2683 2685 2686 2687 2722 2723 2726 2747
2685 5 2683 2684 2747 2749 4990
2686 9 2683 2684 2687 2741 2742 2743 4441 4443 4990
2687 5 2684 2686 2726 2729 2741
2688 4 2689 2691 4411 4502
2689 9 2688 2690 2691 2692 2712 2713 2714 4502 4508
2690 6 2689 2692 2714 2732 2736 2737
2691 6 2688 2689 2692 2740 2744 4411
2692 6 2689 2690 2691 2732 2733 2740
2693 6 2695 2697 2707 2708 2752 2755
2694 7 2695 2696 2697 2745 2746 2750 4985
2695 5 2693 2694 2696 2697 2755
2696 5 2694 2695 2755 4985 4986
2697 6 2673 2693 2694 2695 2708 2746
2698 7 2699 2700 2701 2702 2703 2768 2770
2699 4 2698 2700 2701 4896
2700 3 2698 2699 2701
2701 6 1823 2698 2699 2700 2770 4896
2702 7 2698 2703 2756 2757 2767 2768 2771
2703 3 2698 2702 2768
2704 7 1786 1814 1815 2705 2706 2707 2752
2705 5 2704 2706 2707 2708 2709
2706 6 1774 1814 2675 2704 2705 2709
2707 5 2693 2704 2705 2708 2752
2708 7 2673 2676 2693 2697 2705 2707 2709
2709 5 2675 2676 2705 2706 2708
2710 10 512 557 564 1780 2711 2715 2761 2762 4467 4468
2711 6 2710 2712 2713 2714 2715 2762
2712 8 2689 2711 2713 2715 4430 4499 4507 4508
2713 4 2689 2711 2712 2714
2714 7 2689 2690 2711 2713 2736 2762 2766
2715 5 2710 2711 2712 4430 4468
2716 3 2718 2719 2720
2717 5 2718 2719 2721 2759 4437
2718 8 2679 2680 2681 2716 2717 2719 2720 2721
2719 7 2716 2717 2718 2720 2759 2760 2771
2720 6 2681 2682 2716 2718 2719 2771
2721 5 2679 2717 2718 4437 4439
2722 7 2675 2678 2684 2723 2724 2725 2726
2723 4 2677 2678 2684 2722
2724 6 1756 1759 2722 2725 2726 2727
2725 5 1759 1770 2675 2722 2724
2726 6 2684 2687 2722 2724 2727 2729
2727 7 1756 1761 1844 2724 2726 2729 2731
2728 8 1844 1845 2730 2731 2735 2738 2739 4895
2729 7 2687 2726 2727 2730 2731 2733 2741
2730 5 2728 2729 2731 2733 2739
2731 7 1761 1844 1845 2727 2728 2729 2730
2732 5 2690 2692 2733 2737 2739
2733 7 2692 2729 2730 2732 2739 2740 2741
2734 5 2735 2763 2765 2766 4894
2735 9 1844 2728 2734 2736 2738 2763 2766 4894 4895
2736 6 2690 2714 2735 2737 2738 2766
2737 5 2690 2732 2736 2738 2739
2738 5 2728 2735 2736 2737 2739
2739 6 2728 2730 2732 2733 2737 2738
2740 5 2691 2692 2733 2741 2744
2741 7 2686 2687 2729 2733 2740 2742 2744
2742 4 2686 2741 2743 2744
2743 4 2686 2742 2744 4441
2744 8 2691 2740 2741 2742 2743 4411 4412 4441
2745 4 2694 2746 2748 2750
2746 5 2673 2694 2697 2745 2748
2747 5 2677 2684 2685 2748 2749
2748 8 2673 2674 2677 2745 2746 2747 2749 2750
2749 5 2685 2747 2748 2750 4990
2750 6 2694 2745 2748 2749 4985 4990
2751 5 1783 1786 2752 2753 2754
2752 7 1786 2693 2704 2707 2751 2753 2755
2753 6 2751 2752 2754 2755 2769 4986
2754 6 1783 1823 2751 2753 2769 2770
2755 6 2693 2695 2696 2752 2753 4986
2756 5 2702 2757 2758 2760 2771
2757 3 2702 2756 2758
2758 7 2756 2757 2759 2760 4423 4622 4993
2759 6 2717 2719 2758 2760 4437 4993
2760 5 2719 2756 2758 2759 2771
2761 7 1780 2710 2762 2763 2764 2765 4894
2762 6 2710 2711 2714 2761 2763 2766
2763 6 2734 2735 2761 2762 2765 2766
2764 3 2761 2765 4894
2765 5 2734 2761 2763 2764 4894
2766 6 2714 2734 2735 2736 2762 2763
2767 5 2702 2768 2771 4985 4986
2768 7 2698 2702 2703 2767 2769 2770 4986
2769 5 2753 2754 2768 2770 4986
2770 6 1823 2698 2701 2754 2768 2769
2771 8 2682 2702 2719 2720 2756 2760 2767 4985
2772 7 2774 2775 2776 2777 2831 2833 2837
2773 7 2774 2776 2777 2781 2782 2852 2859
2774 4 2772 2773 2776 2777
2775 4 2772 2776 2833 2835
2776 7 2772 2773 2774 2775 2856 2857 2859
2777 8 2772 2773 2774 2781 2783 2784 2837 2842
2778 7 2779 2780 2843 2846 2847 2848 2855
2779 6 2778 2780 2781 2782 2783 2848
2780 4 2778 2779 2782 2855
2781 5 2773 2777 2779 2782 2783
2782 7 2773 2779 2780 2781 2852 2853 2855
2783 8 2777 2779 2781 2784 2789 2822 2842 2848
2784 5 2777 2783 2785 2789 2842
2785 6 2784 2787 2789 2814 2840 2842
2786 7 2787 2788 2809 2817 2819 3288 3290
2787 6 2785 2786 2788 2814 2819 2840
2788 6 2786 2787 2840 2841 3290 3312
2789 7 2783 2784 2785 2814 2818 2822 2829
2790 5 2791 2792 2793 2794 4606
2791 6 2790 2794 2865 2866 2867 4606
2792 6 2790 2793 2794 2807 2810 2830
2793 6 2790 2792 2824 2828 2830 4606
2794 6 2790 2791 2792 2807 2865 3641
2795 7 2796 2797 2798 2800 2801 2803 2861
2796 6 2795 2797 2798 2799 2803 2805
2797 7 2795 2796 2798 2799 2858 2860 2861
2798 3 2795 2796 2797
2799 4 2796 2797 2804 2805
2800 5 2795 2801 2802 2856 2861
2801 4 2795 2800 2802 2803
2802 4 2800 2801 2803 2806
2803 6 2795 2796 2801 2802 2805 2806
2804 3 2799 2805 2806
2805 5 2796 2799 2803 2804 2806
2806 4 2802 2803 2804 2805
2807 7 2792 2794 2808 2810 2813 2865 3641
2808 9 2807 2809 2810 2811 2812 2813 2815 2816 3641
2809 8 2786 2808 2811 2815 2817 3288 3303 3306
2810 5 2792 2807 2808 2816 2830
2811 7 2808 2809 2812 3303 3630 3641 4334
2812 3 2808 2811 3641
2813 3 2807 2808 3641
2814 6 2785 2787 2789 2817 2818 2819
2815 5 2808 2809 2816 2817 2818
2816 7 2808 2810 2815 2818 2826 2829 2830
2817 6 2786 2809 2814 2815 2818 2819
2818 6 2789 2814 2815 2816 2817 2829
2819 4 2786 2787 2814 2817
2820 4 2821 2822 2824 2827
2821 8 2820 2822 2823 2824 2846 2847 3647 3658
2822 9 2783 2789 2820 2821 2826 2827 2829 2847 2848
2823 6 2821 2843 2844 2845 2846 3647
2824 9 2793 2820 2821 2827 2828 3658 4606 4859 4860
2825 4 2826 2827 2828 2830
2826 6 2816 2822 2825 2827 2829 2830
2827 6 2820 2822 2824 2825 2826 2828
2828 5 2793 2824 2825 2827 2830
2829 5 2789 2816 2818 2822 2826
2830 7 2792 2793 2810 2816 2825 2826 2828
2831 4 2772 2833 2836 2837
2832 5 2834 2839 3311 3991 3994
2833 7 2772 2775 2831 2834 2835 2836 2839
2834 6 2832 2833 2835 2839 3922 3994
2835 3 2775 2833 2834
2836 5 2831 2833 2837 2838 2839
2837 7 2772 2777 2831 2836 2838 2840 2842
2838 6 2836 2837 2839 2840 2841 3312
2839 7 2832 2833 2834 2836 2838 3311 3312
2840 7 2785 2787 2788 2837 2838 2841 2842
2841 4 2788 2838 2840 3312
2842 6 2777 2783 2784 2785 2837 2840
2843 7 2778 2823 2844 2845 2846 2849 2855
2844 5 2823 2843 2845 2849 3647
2845 3 2823 2843 2844
2846 5 2778 2821 2823 2843 2847
2847 5 2778 2821 2822 2846 2848
2848 5 2778 2779 2783 2822 2847
2849 4 2843 2844 2851 2855
2850 4 2851 2853 2854 2858
2851 4 2849 2850 2853 2855
2852 5 2773 2782 2853 2854 2859
2853 6 2782 2850 2851 2852 2854 2855
2854 6 2850 2852 2853 2856 2858 2859
2855 7 2778 2780 2782 2843 2849 2851 2853
2856 8 2776 2800 2854 2857 2858 2859 2860 2861
2857 3 2776 2856 2859
2858 5 2797 2850 2854 2856 2860
2859 6 2773 2776 2852 2854 2856 2857
2860 4 2797 2856 2858 2861
2861 5 2795 2797 2800 2856 2860
2862 7 2863 2864 2866 3641 3644 3659 3661
2863 3 2862 2864 3641
2864 5 2862 2863 2865 2866 3641
2865 6 2791 2794 2807 2864 2866 3641
2866 6 2791 2862 2864 2865 2867 3661
2867 6 2791 2866 3658 3661 4606 4859
2868 4 2869 2870 2965 4527
2869 6 2868 2870 2963 3753 4527 4529
2870 5 2868 2869 2963 2964 2965
2871 3 2872 3754 4527
2872 4 2871 3754 4527 4528
2873 6 2874 2875 2876 2879 3029 3031
2874 8 2873 2875 2876 2877 2884 2912 2913 3012
2875 5 2873 2874 2910 2913 3029
2876 5 2873 2874 2877 2878 2879
2877 4 2874 2876 2878 3012
2878 8 2876 2877 2879 2880 2989 2990 3012 3015
2879 7 2873 2876 2878 2880 3024 3026 3031
2880 6 2878 2879 2985 2990 3026 3028
2881 9 2883 2885 2886 2887 2888 2895 2897 4240 4317
2882 4 2883 2884 2887 2888
2883 7 2881 2882 2884 2886 2888 3012 3013
2884 6 2874 2882 2883 2887 2912 3012
2885 5 2881 2886 3014 4240 4244
2886 6 2881 2883 2885 3013 3014 4244
2887 8 2881 2882 2884 2888 2894 2895 2896 2912
2888 4 2881 2882 2883 2887
2889 6 2891 2892 2893 2946 4325 4909
2890 4 2891 2896 2909 2950
2891 7 2889 2890 2893 2894 2896 2946 2950
2892 8 2889 2893 2895 2897 4325 4326 4350 4351
2893 5 2889 2891 2892 2894 2895
2894 5 2887 2891 2893 2895 2896
2895 6 2881 2887 2892 2893 2894 2897
2896 6 2887 2890 2891 2894 2909 2912
2897 6 2881 2892 2895 4317 4347 4351
2898 6 2899 2905 2907 2926 2929 3029
2899 5 2898 2906 2907 2926 2928
2900 8 2901 2902 2904 2914 2915 3035 3039 3041
2901 7 2900 2903 2904 2930 2932 3035 3041
2902 9 2900 2904 2905 2906 2907 2908 2910 2915 2916
2903 4 2901 2904 2906 2932
2904 5 2900 2901 2902 2903 2906
2905 5 2898 2902 2907 2910 3029
2906 7 2899 2902 2903 2904 2907 2928 2932
2907 5 2898 2899 2902 2905 2906
2908 7 2902 2910 2911 2915 2916 2943 2951
2909 7 2890 2896 2911 2912 2943 2945 2950
2910 7 2875 2902 2905 2908 2911 2913 3029
2911 6 2908 2909 2910 2912 2913 2943
2912 7 2874 2884 2887 2896 2909 2911 2913
2913 5 2874 2875 2910 2911 2912
2914 4 2900 2915 2980 3039
2915 7 2900 2902 2908 2914 2916 2951 2980
2916 3 2902 2908 2915
2917 7 715 1115 2918 2925 3765 3767 4826
2918 5 1113 1115 2917 2924 2925
2919 6 2920 2921 2922 3018 3020 3770
2920 4 2919 2921 2922 2923
2921 9 2919 2920 2923 2934 2936 2937 2941 3019 3020
2922 7 2919 2920 2923 2924 2925 3765 3770
2923 5 2920 2921 2922 2924 2941
2924 7 1113 1114 2918 2922 2923 2925 2941
2925 5 2917 2918 2922 2924 3765
2926 6 2898 2899 2927 2928 2929 3876
2927 6 2926 2928 2933 3872 3875 3876
2928 6 2899 2906 2926 2927 2932 2933
2929 9 2898 2926 3022 3023 3025 3029 3030 3032 3876
2930 6 2901 2931 2932 3035 3742 3745
2931 6 2930 2932 2933 3736 3745 3853
2932 7 2901 2903 2906 2928 2930 2931 2933
2933 7 2927 2928 2931 2932 3849 3853 3872
2934 7 2921 2935 2936 2986 3005 3007 3019
2935 4 2934 2936 2938 3007
2936 7 2921 2934 2935 2937 2938 2939 2940
2937 5 2921 2936 2940 2941 2942
2938 5 2935 2936 2939 2940 3007
2939 3 2936 2938 2940
2940 7 2936 2937 2938 2939 2942 3002 3007
2941 6 1114 2921 2923 2924 2937 2942
2942 7 1036 1114 2937 2940 2941 2997 3002
2943 5 2908 2909 2911 2945 2951
2944 5 2946 2947 2975 2976 4909
2945 7 2909 2943 2947 2949 2950 2951 2981
2946 6 2889 2891 2944 2947 2950 4909
2947 6 2944 2945 2946 2950 2976 2981
2948 4 2949 2951 2980 2981
2949 4 2945 2948 2951 2981
2950 6 2890 2891 2909 2945 2946 2947
2951 7 2908 2915 2943 2945 2948 2949 2980
2952 8 2958 2974 2975 2976 2977 2982 4672 4673
2953 7 2954 2955 2958 2978 2982 4671 4672
2954 10 2953 2955 2956 2957 2961 3036 3800 3801 3805 4671
2955 5 2953 2954 2978 3034 3036
2956 4 2954 2957 2961 4670
2957 7 2954 2956 4586 4669 4670 4671 4672
2958 4 2952 2953 2982 4672
2959 6 2960 2961 2964 2965 4669 4670
2960 6 2959 2961 2962 2963 2964 3805
2961 6 2954 2956 2959 2960 3805 4670
2962 4 2960 2963 3803 3805
2963 8 2869 2870 2960 2962 2964 3753 3803 4536
2964 5 2870 2959 2960 2963 2965
2965 5 2868 2870 2959 2964 4669
2966 5 2967 2972 2973 4280 4287
2967 7 2966 2968 2973 2998 2999 3003 4280
2968 4 2967 2997 2998 3003
2969 6 2970 2971 2991 4247 4248 4250
2970 6 2969 2971 2984 2988 2991 3006
2971 7 2969 2970 2972 2973 3006 3008 4247
2972 6 2966 2971 2973 4247 4280 4287
2973 7 2966 2967 2971 2972 3001 3003 3008
2974 3 2952 2975 2976
2975 8 2944 2952 2974 2976 4673 4906 4908 4909
2976 8 2944 2947 2952 2974 2975 2977 2979 2981
2977 5 2952 2976 2978 2979 2982
2978 7 2953 2955 2977 2979 2982 3034 3039
2979 6 2976 2977 2978 2980 2981 3039
2980 7 2914 2915 2948 2951 2979 2981 3039
2981 7 2945 2947 2948 2949 2976 2979 2980
2982 5 2952 2953 2958 2977 2978
2983 5 2984 2985 2987 2988 2990
2984 6 2970 2983 2988 2989 2990 2991
2985 7 2880 2983 2986 2987 2990 3027 3028
2986 7 2934 2985 2987 3005 3017 3019 3027
2987 5 2983 2985 2986 2988 3005
2988 7 2970 2983 2984 2987 3004 3005 3006
2989 6 2878 2984 2990 2991 3015 3016
2990 6 2878 2880 2983 2984 2985 2989
2991 7 2969 2970 2984 2989 3011 3016 4248
2992 7 2993 2995 2996 2998 2999 3000 3254
2993 6 1037 2992 2994 2995 3000 3256
2994 6 1035 1036 1037 2993 2997 3000
2995 4 2992 2993 3254 3256
2996 5 2992 2999 3241 3254 3255
2997 8 1036 2942 2968 2994 2998 3000 3002 3003
2998 6 2967 2968 2992 2997 2999 3000
2999 7 2967 2992 2996 2998 3241 4280 4284
3000 5 2992 2993 2994 2997 2998
3001 6 2973 3002 3003 3005 3007 3008
3002 6 2940 2942 2997 3001 3003 3007
3003 6 2967 2968 2973 2997 3001 3002
3004 4 2988 3005 3006 3008
3005 8 2934 2986 2987 2988 3001 3004 3007 3008
3006 5 2970 2971 2988 3004 3008
3007 7 2934 2935 2938 2940 3001 3002 3005
3008 6 2971 2973 3001 3004 3005 3006
3009 5 3010 3011 3013 3014 3016
3010 6 3009 3011 3014 4237 4239 4248
3011 5 2991 3009 3010 3016 4248
3012 7 2874 2877 2878 2883 2884 3013 3015
3013 7 2883 2886 3009 3012 3014 3015 3016
3014 7 2885 2886 3009 3010 3013 4237 4244
3015 5 2878 2989 3012 3013 3016
3016 6 2989 2991 3009 3011 3013 3015
3017 6 2986 3019 3021 3022 3023 3027
3018 5 2919 3019 3020 3023 3770
3019 7 2921 2934 2986 3017 3018 3020 3023
3020 4 2919 2921 3018 3019
3021 3 3017 3022 3023
3022 6 2929 3017 3021 3023 3025 3027
3023 9 2929 3017 3018 3019 3021 3022 3770 3871 3876
3024 5 2879 3025 3026 3031 3032
3025 7 2929 3022 3024 3026 3027 3028 3032
3026 5 2879 2880 3024 3025 3028
3027 6 2985 2986 3017 3022 3025 3028
3028 5 2880 2985 3025 3026 3027
3029 8 2873 2875 2898 2905 2910 2929 3030 3031
3030 4 2929 3029 3031 3032
3031 6 2873 2879 3024 3029 3030 3032
3032 5 2929 3024 3025 3030 3031
3033 5 3035 3036 3040 3742 3749
3034 6 2955 2978 3036 3037 3038 3039
3035 7 2900 2901 2930 3033 3040 3041 3742
3036 8 2954 2955 3033 3034 3037 3040 3749 3801
3037 5 3034 3036 3038 3039 3040
3038 3 3034 3037 3039
3039 10 2900 2914 2978 2979 2980 3034 3037 3038 3040 3041
3040 6 3033 3035 3036 3037 3039 3041
3041 5 2900 2901 3035 3039 3040
3042 5 3044 3045 3049 3050 3196
3043 6 680 688 772 3044 3046 3177
3044 6 688 3042 3043 3045 3046 3050
3045 11 644 680 682 683 688 3042 3044 3086 3092 3093 3196
3046 7 3043 3044 3048 3050 3156 3157 3177
3047 7 3048 3049 3073 3153 3162 3165 4834
3048 6 3046 3047 3049 3050 3153 3156
3049 7 3042 3047 3048 3050 3073 3075 3196
3050 5 3042 3044 3046 3048 3049
3051 4 3052 3053 3055 3056
3052 8 3051 3053 3054 3056 3059 3137 4591 4837
3053 9 1520 1523 1524 1573 3051 3052 3055 3057 3059
3054 7 3052 3057 3058 3059 4835 4836 4837
3055 7 1524 1587 3051 3053 3056 3132 3135
3056 6 3051 3052 3055 3131 3132 3137
3057 6 1573 1574 3053 3054 3058 3059
3058 5 1571 1574 3054 3057 4835
3059 4 3052 3053 3054 3057
3060 8 1574 3062 3067 3149 3150 4524 4589 4590
3061 3 3062 3064 3067
3062 7 3060 3061 3063 3064 3065 3067 4589
3063 5 3062 3065 3126 3127 4589
3064 8 3061 3062 3065 3066 3067 3184 3188 3189
3065 5 3062 3063 3064 3066 3126
3066 5 3064 3065 3121 3126 3189
3067 6 3060 3061 3062 3064 3149 3184
3068 6 3069 3071 3073 3075 3163 3164
3069 6 3068 3070 3071 3074 3076 3164
3070 3 3069 3071 3074
3071 6 3068 3069 3070 3074 3075 3194
3072 5 3074 3076 3142 3198 4587
3073 6 3047 3049 3068 3075 3162 3163
3074 9 3069 3070 3071 3072 3076 3190 3191 3194 3198
3075 7 3049 3068 3071 3073 3192 3194 3196
3076 5 3069 3072 3074 3164 4587
3077 7 3079 3082 3085 3124 3125 4833 4834
3078 5 3079 3080 3084 3110 3822
3079 7 3077 3078 3080 3081 3082 3084 3085
3080 5 3078 3079 3081 3110 3111
3081 6 3079 3080 3082 3111 3160 3161
3082 7 3077 3079 3081 3153 3161 3165 4834
3083 6 3084 3085 3121 3125 3180 3181
3084 6 3078 3079 3083 3085 3181 3822
3085 5 3077 3079 3083 3084 3125
3086 7 643 644 683 3045 3091 3093 4512
3087 6 784 3088 3089 3112 3114 3193
3088 6 784 3087 3089 3090 4509 4511
3089 5 3087 3088 3090 3193 3195
3090 7 3088 3089 3091 3190 3195 3197 4511
3091 8 3086 3090 3092 3093 3190 3197 4511 4512
3092 6 3045 3091 3093 3192 3196 3197
3093 4 3045 3086 3091 3092
3094 4 3098 3099 4831 4832
3095 3 3097 3794 3838
3096 9 3097 3098 3100 3101 3102 3143 3144 3146 3149
3097 7 3095 3096 3098 3143 3794 3838 4832
3098 6 3094 3096 3097 3099 3100 4832
3099 4 3094 3098 3860 4831
3100 6 3096 3098 3101 3102 4643 4644
3101 3 3096 3100 3102
3102 7 3096 3100 3101 3149 3150 4524 4643
3103 6 3104 3106 3109 3111 3764 3768
3104 6 3103 3105 3106 3111 3155 3160
3105 6 3104 3106 3108 3154 3155 3173
3106 5 3103 3104 3105 3108 3764
3107 4 3108 3174 3175 3764
3108 6 3105 3106 3107 3173 3175 3764
3109 6 3103 3110 3111 3768 3823 3824
3110 6 3078 3080 3109 3111 3822 3823
3111 7 3080 3081 3103 3104 3109 3110 3160
3112 8 747 3087 3113 3114 3119 3120 3193 3198
3113 4 747 3112 3114 3115
3114 7 784 785 3087 3112 3113 3115 3116
3115 5 747 750 3113 3114 3116
3116 5 664 750 785 3114 3115
3117 6 3118 3119 3129 3130 3142 3198
3118 6 1584 1590 3117 3119 3120 3129
3119 5 3112 3117 3118 3120 3198
3120 5 747 1584 3112 3118 3119
3121 6 3066 3083 3125 3126 3180 3189
3122 5 3125 3126 3127 3128 4838
3123 4 3124 3125 3128 4591
3124 7 3077 3123 3125 3139 3166 4591 4833
3125 9 3077 3083 3085 3121 3122 3123 3124 3126 3128
3126 7 3063 3065 3066 3121 3122 3125 3127
3127 6 3063 3122 3126 4589 4835 4838
3128 5 3122 3123 3125 4591 4838
3129 6 1589 1590 3117 3118 3130 3134
3130 7 3117 3129 3133 3134 3136 3142 3198
3131 6 3056 3132 3133 3137 3138 4592
3132 6 3055 3056 3131 3133 3135 3136
3133 6 3130 3131 3132 3136 3138 3142
3134 5 1589 3129 3130 3135 3136
3135 7 1587 1588 1589 3055 3132 3134 3136
3136 5 3130 3132 3133 3134 3135
3137 5 3052 3056 3131 4591 4592
3138 6 3131 3133 3139 3140 3142 4592
3139 8 3124 3138 3140 3141 3166 4591 4592 4833
3140 7 3138 3139 3141 3142 3167 4587 4588
3141 5 3139 3140 3166 3167 3169
3142 9 3072 3117 3130 3133 3138 3140 3198 4587 4588
3143 9 3096 3097 3144 3147 3148 3151 3794 3795 3796
3144 4 3096 3143 3146 3147
3145 6 3147 3149 3151 3182 3183 3184
3146 4 3096 3144 3147 3149
3147 6 3143 3144 3145 3146 3149 3151
3148 6 3143 3151 3182 3793 3796 3810
3149 9 3060 3067 3096 3102 3145 3146 3147 3150 3184
3150 4 3060 3102 3149 4524
3151 5 3143 3145 3147 3148 3182
3152 7 3154 3155 3156 3157 3159 3160 3161
3153 7 3047 3048 3082 3156 3159 3161 3165
3154 6 3105 3152 3155 3157 3158 3173
3155 5 3104 3105 3152 3154 3160
3156 6 3046 3048 3152 3153 3157 3159
3157 6 3046 3152 3154 3156 3158 3177
3158 6 3154 3157 3173 3177 3178 3179
3159 4 3152 3153 3156 3161
3160 6 3081 3104 3111 3152 3155 3161
3161 6 3081 3082 3152 3153 3159 3160
3162 7 3047 3073 3163 3168 3169 4833 4834
3163 5 3068 3073 3162 3164 3169
3164 7 3068 3069 3076 3163 3167 3169 4587
3165 4 3047 3082 3153 4834
3166 6 3124 3139 3141 3168 3169 4833
3167 5 3140 3141 3164 3169 4587
3168 4 3162 3166 3169 4833
3169 7 3141 3162 3163 3164 3166 3167 3168
3170 5 771 772 3171 3177 3179
3171 5 771 3170 3172 3178 3179
3172 6 714 770 771 3171 3175 3178
3173 6 3105 3108 3154 3158 3175 3178
3174 6 714 3107 3175 3176 3764 3767
3175 8 714 3107 3108 3172 3173 3174 3176 3178
3176 3 714 3174 3175
3177 7 772 3043 3046 3157 3158 3170 3179
3178 6 3158 3171 3172 3173 3175 3179
3179 5 3158 3170 3171 3177 3178
3180 6 3083 3121 3181 3186 3189 3809
3181 5 3083 3084 3180 3809 3822
3182 6 3145 3148 3151 3183 3810 3811
3183 6 3145 3182 3184 3185 3187 3811
3184 7 3064 3067 3145 3149 3183 3185 3188
3185 5 3183 3184 3186 3187 3188
3186 6 3180 3185 3187 3188 3189 3809
3187 6 3183 3185 3186 3807 3809 3811
3188 5 3064 3184 3185 3186 3189
3189 6 3064 3066 3121 3180 3186 3188
3190 8 3074 3090 3091 3191 3194 3195 3197 3198
3191 3 3074 3190 3194
3192 5 3075 3092 3194 3196 3197
3193 5 3087 3089 3112 3195 3198
3194 7 3071 3074 3075 3190 3191 3192 3197
3195 5 3089 3090 3190 3193 3198
3196 6 3042 3045 3049 3075 3092 3192
3197 6 3090 3091 3092 3190 3192 3194
3198 10 3072 3074 3112 3117 3119 3130 3142 3190 3193 3195
3199 6 3200 3201 3202 3204 3301 3302
3200 9 3199 3201 3202 3219 3227 3267 3269 3271 3282
3201 7 3199 3200 3203 3204 3219 3251 4864
3202 6 3199 3200 3226 3227 3299 3301
3203 5 3201 3204 3302 4863 4864
3204 4 3199 3201 3203 3302
3205 5 3206 3209 3210 3268 3270
3206 6 3205 3207 3208 3209 3210 3310
3207 4 3206 3208 3209 3295
3208 7 3206 3207 3264 3265 3294 3295 3310
3209 6 3205 3206 3207 3270 3292 3295
3210 9 3205 3206 3223 3224 3225 3266 3268 3310 3314
3211 4 3215 3235 3249 4864
3212 4 3213 3298 4375 4863
3213 7 3212 3214 3215 4293 4375 4863 4864
3214 3 3213 3215 4864
3215 8 3211 3213 3214 3235 3236 4292 4293 4864
3216 4 3219 3220 3221 3283
3217 6 3218 3221 3222 3232 3283 3284
3218 10 3217 3232 3275 3278 3280 3284 3878 3984 3985 3988
3219 10 3200 3201 3216 3220 3221 3251 3253 3269 3282 3283
3220 3 3216 3219 3283
3221 7 3216 3217 3219 3222 3248 3253 3283
3222 5 3217 3221 3232 3233 3248
3223 7 3210 3225 3228 3242 3247 3266 3271
3224 4 3210 3225 3289 3314
3225 5 3210 3223 3224 3242 3289
3226 7 3202 3227 3228 3245 3246 3247 3299
3227 5 3200 3202 3226 3228 3271
3228 5 3223 3226 3227 3247 3271
3229 5 3230 3231 3235 3238 3255
3230 6 3229 3231 3232 3234 3255 3278
3231 7 3229 3230 3232 3233 3235 3248 3252
3232 7 3217 3218 3222 3230 3231 3233 3278
3233 4 3222 3231 3232 3248
3234 5 3230 3254 3255 3259 3278
3235 9 3211 3215 3229 3231 3236 3237 3238 3249 3252
3236 5 3215 3235 3237 3239 4292
3237 6 3235 3236 3238 3239 3240 3241
3238 5 3229 3235 3237 3241 3255
3239 5 3236 3237 3240 4282 4292
3240 4 3237 3239 3241 4282
3241 9 2996 2999 3237 3238 3240 3255 4282 4284 4285
3242 5 3223 3225 3247 3285 3289
3243 5 3244 3245 3299 3317 3318
3244 4 3243 3245 3308 3317
3245 7 3226 3243 3244 3246 3299 3304 3308
3246 5 3226 3245 3247 3303 3304
3247 7 3223 3226 3228 3242 3246 3285 3303
3248 8 3221 3222 3231 3233 3249 3250 3252 3253
3249 6 3211 3235 3248 3250 3252 4864
3250 5 3248 3249 3251 3253 4864
3251 5 3201 3219 3250 3253 4864
3252 4 3231 3235 3248 3249
3253 5 3219 3221 3248 3250 3251
3254 7 2992 2995 2996 3234 3255 3256 3259
3255 7 2996 3229 3230 3234 3238 3241 3254
3256 7 1037 2993 2995 3254 3257 3258 3259
3257 5 1037 1040 3256 3258 3276
3258 4 3256 3257 3259 3276
3259 7 3234 3254 3256 3258 3276 3277 3278
3260 5 3261 3263 3265 3294 3935
3261 4 3260 3262 3263 3265
3262 8 3261 3263 3264 3265 3311 3991 3992 3993
3263 6 3260 3261 3262 3932 3935 3993
3264 5 3208 3262 3265 3310 3311
3265 6 3208 3260 3261 3262 3264 3294
3266 4 3210 3223 3268 3271
3267 4 3200 3268 3269 3271
3268 7 3205 3210 3266 3267 3269 3270 3271
3269 6 3200 3219 3267 3268 3270 3282
3270 7 3205 3209 3268 3269 3282 3292 3296
3271 7 3200 3223 3227 3228 3266 3267 3268
3272 4 3273 3275 3276 3277
3273 7 1040 1043 1133 3272 3274 3275 3276
3274 5 1128 1133 1135 3273 3275
3275 8 1128 3218 3272 3273 3274 3277 3278 3878
3276 7 1040 3257 3258 3259 3272 3273 3277
3277 5 3259 3272 3275 3276 3278
3278 7 3218 3230 3232 3234 3259 3275 3277
3279 4 3280 3281 3291 3293
3280 9 3218 3279 3281 3282 3283 3284 3291 3296 3988
3281 5 3279 3280 3293 3930 3988
3282 7 3200 3219 3269 3270 3280 3283 3296
3283 8 3216 3217 3219 3220 3221 3280 3282 3284
3284 4 3217 3218 3280 3283
3285 7 3242 3247 3286 3287 3289 3303 3305
3286 3 3285 3287 3289
3287 5 3285 3286 3288 3289 3305
3288 7 2786 2809 3287 3289 3290 3305 3306
3289 9 3224 3225 3242 3285 3286 3287 3288 3290 3314
3290 7 2786 2788 3288 3289 3312 3313 3314
3291 5 3279 3280 3292 3293 3296
3292 6 3209 3270 3291 3293 3295 3296
3293 6 3279 3281 3291 3292 3295 3930
3294 6 3208 3260 3265 3295 3935 3936
3295 9 3207 3208 3209 3292 3293 3294 3925 3930 3936
3296 5 3270 3280 3282 3291 3292
3297 6 3298 3299 3300 3301 3318 3319
3298 8 3212 3297 3301 3302 3319 4375 4862 4863
3299 8 3202 3226 3243 3245 3297 3300 3301 3318
3300 3 3297 3299 3301
3301 7 3199 3202 3297 3298 3299 3300 3302
3302 6 3199 3203 3204 3298 3301 4863
3303 11 2809 2811 3246 3247 3285 3304 3305 3306 3307 3308 4334
3304 4 3245 3246 3303 3308
3305 5 3285 3287 3288 3303 3306
3306 4 2809 3288 3303 3305
3307 7 3303 3308 3317 4334 4390 4394 4395
3308 6 3244 3245 3303 3304 3307 3317
3309 3 3310 3311 3314
3310 7 3206 3208 3210 3264 3309 3311 3314
3311 10 2832 2839 3262 3264 3309 3310 3312 3313 3314 3991
3312 7 2788 2838 2839 2841 3290 3311 3313
3313 4 3290 3311 3312 3314
3314 8 3210 3224 3289 3290 3309 3310 3311 3313
3315 3 3316 3320 4359
3316 7 3315 3317 3318 3320 4359 4390 4861
3317 7 3243 3244 3307 3308 3316 3318 4390
3318 7 3243 3297 3299 3316 3317 3319 4861
3319 5 3297 3298 3318 4861 4862
3320 10 3315 3316 4256 4260 4262 4357 4358 4359 4861 4862
3321 4 3323 3326 3327 3350
3322 6 3323 3327 3328 4611 4800 4801
3323 5 3321 3322 3327 3350 4611
3324 8 3325 3326 3350 3355 3376 3377 3378 3441
3325 5 3324 3326 3327 3377 4799
3326 5 3321 3324 3325 3327 3350
3327 7 3321 3322 3323 3325 3326 3328 4799
3328 4 3322 3327 4799 4800
3329 6 3330 3331 3402 3403 4797 4798
3330 5 3329 3332 3403 3406 4797
3331 6 3329 3357 3361 3370 3402 4798
3332 7 3330 3405 3406 3436 3442 4795 4797
3333 5 3334 3335 3442 4797 4798
3334 5 3333 3335 3376 3440 3442
3335 6 3333 3334 3364 3374 3376 4798
3336 5 3338 3340 3430 3460 3461
3337 4 3340 3342 3343 4803
3338 6 3336 3339 3340 3341 3430 3431
3339 5 3338 3341 3345 3431 3439
3340 10 3336 3337 3338 3341 3342 3460 4036 4614 4937 4939
3341 6 3338 3339 3340 3342 3345 3346
3342 6 3337 3340 3341 3343 3346 4802
3343 4 3337 3342 4802 4803
3344 4 3352 4613 4804 4806
3345 8 3339 3341 3346 3347 3354 3438 3439 3441
3346 7 3341 3342 3345 3347 3348 3354 4802
3347 3 3345 3346 3354
3348 4 3346 3354 4613 4802
3349 5 3351 3352 3353 3354 3356
3350 8 3321 3323 3324 3326 3351 3352 3355 4611
3351 5 3349 3350 3352 3355 3356
3352 10 3344 3349 3350 3351 3354 4610 4611 4613 4806 4819
3353 5 3349 3354 3355 3356 3441
3354 9 3345 3346 3347 3348 3349 3352 3353 3441 4613
3355 7 3324 3350 3351 3353 3356 3376 3441
3356 4 3349 3351 3353 3355
3357 11 3331 3358 3359 3361 3368 3369 3370 3402 3455 3456 3458
3358 7 3357 3359 3360 3362 3450 3457 3458
3359 4 3357 3358 3361 3362
3360 9 3358 3362 3363 3364 3374 3379 3450 3451 3453
3361 5 3331 3357 3359 3362 4798
3362 6 3358 3359 3360 3361 3363 4798
3363 4 3360 3362 3364 4798
3364 6 3335 3360 3363 3374 3379 4798
3365 5 3367 3371 3412 3417 3454
3366 5 3367 3368 3369 3371 3426
3367 6 3365 3366 3369 3371 3454 3455
3368 6 3357 3366 3369 3370 3400 3426
3369 5 3357 3366 3367 3368 3455
3370 6 3331 3357 3368 3400 3401 3402
3371 8 3365 3366 3367 3412 3422 3424 3425 3426
3372 6 3373 3379 3452 3453 4615 4799
3373 5 3372 3375 3377 3379 4799
3374 6 3335 3360 3364 3375 3376 3379
3375 6 3373 3374 3376 3377 3378 3379
3376 9 3324 3334 3335 3355 3374 3375 3378 3440 3441
3377 6 3324 3325 3373 3375 3378 4799
3378 4 3324 3375 3376 3377
3379 7 3360 3364 3372 3373 3374 3375 3453
3380 8 3381 3383 3384 3387 3392 3393 3394 3616
3381 8 3380 3382 3383 3385 3393 3394 4096 4098
3382 4 3381 3385 3386 3394
3383 4 3380 3381 3387 4098
3384 4 3380 3392 3421 3616
3385 7 3381 3382 3386 3446 3447 4096 4099
3386 6 3382 3385 3390 3394 3396 3447
3387 5 3380 3383 3615 3616 4098
3388 5 3389 3390 3391 3394 3395
3389 6 3388 3391 3395 3409 3411 3464
3390 5 3386 3388 3391 3394 3396
3391 7 3388 3389 3390 3396 3448 3464 3465
3392 6 3380 3384 3393 3404 3421 3423
3393 7 3380 3381 3392 3394 3395 3404 3407
3394 8 3380 3381 3382 3386 3388 3390 3393 3395
3395 7 3388 3389 3393 3394 3407 3408 3409
3396 6 3386 3390 3391 3447 3448 4793
3397 5 3398 3399 3400 3423 3425
3398 5 3397 3399 3404 3408 3423
3399 6 3397 3398 3400 3401 3408 3410
3400 7 3368 3370 3397 3399 3401 3425 3426
3401 7 3370 3399 3400 3402 3403 3406 3410
3402 6 3329 3331 3357 3370 3401 3403
3403 5 3329 3330 3401 3402 3406
3404 6 3392 3393 3398 3407 3408 3423
3405 7 3332 3406 3411 3429 3433 3434 3436
3406 7 3330 3332 3401 3403 3405 3410 3411
3407 4 3393 3395 3404 3408
3408 7 3395 3398 3399 3404 3407 3409 3410
3409 5 3389 3395 3408 3410 3411
3410 6 3399 3401 3406 3408 3409 3411
3411 7 3389 3405 3406 3409 3410 3433 3464
3412 6 3365 3371 3416 3417 3420 3422
3413 6 3414 3415 3418 3419 3609 4853
3414 7 3413 3417 3419 3557 3558 4853 4854
3415 9 3413 3416 3418 3422 3427 3428 3609 3614 3616
3416 5 3412 3415 3418 3420 3422
3417 8 7 3365 3412 3414 3419 3420 3454 3557
3418 5 3413 3415 3416 3419 3420
3419 5 3413 3414 3417 3418 3420
3420 5 3412 3416 3417 3418 3419
3421 7 3384 3392 3423 3424 3427 3428 3616
3422 6 3371 3412 3415 3416 3424 3428
3423 7 3392 3397 3398 3404 3421 3424 3425
3424 6 3371 3421 3422 3423 3425 3428
3425 6 3371 3397 3400 3423 3424 3426
3426 5 3366 3368 3371 3400 3425
3427 4 3415 3421 3428 3616
3428 5 3415 3421 3422 3424 3427
3429 6 3405 3434 3435 3436 3437 4796
3430 7 3336 3338 3431 3432 3437 3459 3461
3431 6 3338 3339 3430 3432 3439 3443
3432 4 3430 3431 3437 3443
3433 6 3405 3411 3434 3435 3464 3466
3434 4 3405 3429 3433 3435
3435 5 3429 3433 3434 3437 3466
3436 5 3332 3405 3429 4795 4796
3437 8 3429 3430 3432 3435 3443 3459 3466 4796
3438 6 3345 3439 3440 3441 3444 4796
3439 6 3339 3345 3431 3438 3443 4796
3440 6 3334 3376 3438 3441 3442 3444
3441 8 3324 3345 3353 3354 3355 3376 3438 3440
3442 8 3332 3333 3334 3440 3444 4795 4796 4797
3443 5 3431 3432 3437 3439 4796
3444 4 3438 3440 3442 4796
3445 3 4611 4612 4818
3446 6 3385 3447 4099 4102 4104 4812
3447 6 3385 3386 3396 3446 4793 4812
3448 6 3391 3396 3449 3465 4793 4794
3449 7 3448 3463 3465 4614 4794 4814 4815
3450 4 3358 3360 3451 3457
3451 8 7 3360 3450 3452 3453 3454 3457 4615
3452 4 3372 3451 3453 4615
3453 5 3360 3372 3379 3451 3452
3454 8 7 3365 3367 3417 3451 3455 3456 3457
3455 5 3357 3367 3369 3454 3456
3456 5 3357 3454 3455 3457 3458
3457 6 3358 3450 3451 3454 3456 3458
3458 4 3357 3358 3456 3457
3459 6 3430 3437 3461 3462 3465 3466
3460 6 3336 3340 3461 3462 3463 4614
3461 5 3336 3430 3459 3460 3462
3462 5 3459 3460 3461 3463 3465
3463 5 3449 3460 3462 3465 4614
3464 6 3389 3391 3411 3433 3465 3466
3465 8 3391 3448 3449 3459 3462 3463 3464 3466
3466 6 3433 3435 3437 3459 3464 3465
3467 6 3468 3472 3477 3479 3528 3538
3468 7 3467 3469 3471 3472 3526 3527 3528
3469 12 23 24 25 3468 3470 3471 3492 3526 3546 3552 3576 3594
3470 5 3469 3471 3474 3576 3578
3471 5 3468 3469 3470 3472 3474
3472 6 3467 3468 3471 3473 3474 3479
3473 6 3472 3474 3476 3479 3577 3580
3474 6 3470 3471 3472 3473 3578 3580
3475 7 3476 3480 3482 3504 3509 3517 3523
3476 6 3473 3475 3479 3482 3517 3577
3477 6 3467 3478 3479 3481 3538 3539
3478 6 3477 3480 3481 3508 3509 3539
3479 7 3467 3472 3473 3476 3477 3481 3482
3480 5 3475 3478 3481 3482 3509
3481 5 3477 3478 3479 3480 3482
3482 5 3475 3476 3479 3480 3481
3483 6 3484 3487 3488 3574 3584 3585
3484 6 3483 3487 3489 3572 3573 3574
3485 4 3486 3487 3488 3489
3486 5 3485 3488 3530 3535 3587
3487 5 3483 3484 3485 3488 3489
3488 6 3483 3485 3486 3487 3585 3587
3489 4 3484 3485 3487 3572
3490 4 28 3491 3494 3495
3491 5 28 105 3490 3495 4526
3492 7 25 3469 3493 3494 3594 4617 4619
3493 4 25 28 3492 3494
3494 6 28 3490 3492 3493 3495 4617
3495 9 3490 3491 3494 3544 3594 3597 4526 4617 4619
3496 5 3502 3588 3589 3598 3599
3497 4 3498 3500 3501 4144
3498 7 3497 3499 3500 3502 3575 4144 4147
3499 6 3498 3502 3574 3575 3584 3586
3500 4 3497 3498 3501 3502
3501 6 3497 3500 3502 3604 4144 4232
3502 9 3496 3498 3499 3500 3501 3586 3589 3599 3604
3503 6 3504 3505 3510 3523 3524 3619
3504 5 3475 3503 3509 3510 3523
3505 7 3503 3509 3510 3587 3588 3618 3619
3506 4 3507 3508 3509 3537
3507 6 3506 3508 3534 3536 3537 3539
3508 5 3478 3506 3507 3509 3539
3509 10 3475 3478 3480 3504 3505 3506 3508 3510 3537 3587
3510 4 3503 3504 3505 3509
3511 5 3512 3513 3514 3564 3568
3512 5 3511 3513 3556 3560 3564
3513 8 3511 3512 3514 3515 3516 3554 3555 3556
3514 6 3511 3513 3515 3568 4616 4618
3515 4 3513 3514 3516 4616
3516 7 3513 3515 3554 3555 3607 4616 4854
3517 9 3475 3476 3519 3523 3577 3605 3610 3611 3612
3518 6 3520 3521 3522 3608 3609 3614
3519 5 3517 3521 3522 3523 3612
3520 5 3518 3521 3523 3524 3614
3521 5 3518 3519 3520 3522 3523
3522 5 3518 3519 3521 3608 3612
3523 8 3475 3503 3504 3517 3519 3520 3521 3524
3524 5 3503 3520 3523 3614 3619
3525 4 3527 3529 3530 3531
3526 7 3468 3469 3527 3529 3531 3546 3547
3527 8 3468 3525 3526 3528 3530 3531 3532 3533
3528 5 3467 3468 3527 3532 3538
3529 6 3525 3526 3530 3531 3547 3551
3530 6 3486 3525 3527 3529 3533 3535
3531 4 3525 3526 3527 3529
3532 4 3527 3528 3533 3538
3533 6 3527 3530 3532 3535 3536 3538
3534 4 3507 3535 3536 3537
3535 7 3486 3530 3533 3534 3536 3537 3587
3536 6 3507 3533 3534 3535 3538 3539
3537 6 3506 3507 3509 3534 3535 3587
3538 7 3467 3477 3528 3532 3533 3536 3539
3539 6 3477 3478 3507 3508 3536 3538
3540 4 3542 3543 3545 3562
3541 6 3542 3567 3582 3591 3592 4618
3542 6 3540 3541 3545 3562 3567 3591
3543 6 19 3540 3545 3562 3563 4841
3544 5 3495 3545 3593 3597 4526
3545 10 17 19 3540 3542 3543 3544 3591 3593 4525 4526
3546 6 3469 3526 3547 3549 3552 3553
3547 5 3526 3529 3546 3551 3553
3548 2 3549 3552
3549 5 3546 3548 3550 3552 3553
3550 3 3549 3551 3553
3551 4 3529 3547 3550 3553
3552 8 23 2195 2198 2221 3469 3546 3548 3549
3553 5 3546 3547 3549 3550 3551
3554 6 3513 3516 3555 3556 3558 4854
3555 4 3513 3516 3554 3556
3556 7 3512 3513 3554 3555 3558 3559 3560
3557 7 7 10 3414 3417 3558 3559 3561
3558 6 3414 3554 3556 3557 3559 4854
3559 6 10 3556 3557 3558 3560 3561
3560 8 9 10 62 64 3512 3556 3559 3564
3561 3 10 3557 3559
3562 6 3540 3542 3543 3563 3565 3567
3563 8 60 61 3543 3562 3565 3566 4841 4842
3564 7 64 3511 3512 3560 3565 3566 3568
3565 7 3562 3563 3564 3566 3567 3568 4618
3566 5 61 64 3563 3564 3565
3567 5 3541 3542 3562 3565 4618
3568 5 3511 3514 3564 3565 4618
3569 5 3570 3571 4120 4156 4157
3570 4 3569 3571 3572 3573
3571 6 3569 3570 3573 3575 4152 4157
3572 4 3484 3489 3570 3573
3573 6 3484 3570 3571 3572 3574 3575
3574 6 3483 3484 3499 3573 3575 3584
3575 7 3498 3499 3571 3573 3574 4147 4152
3576 7 3469 3470 3578 3579 3594 3595 3596
3577 5 3473 3476 3517 3580 3610
3578 6 3470 3474 3576 3579 3580 3581
3579 6 3576 3578 3581 3582 3592 3596
3580 7 3473 3474 3577 3578 3581 3610 3611
3581 8 3578 3579 3580 3582 3610 3611 4850 4851
3582 6 3541 3579 3581 3592 4618 4850
3583 3 3588 3598 3618
3584 6 3483 3499 3574 3585 3586 3587
3585 4 3483 3488 3584 3587
3586 6 3499 3502 3584 3587 3588 3589
3587 10 3486 3488 3505 3509 3535 3537 3584 3585 3586 3588
3588 8 3496 3505 3583 3586 3587 3589 3598 3618
3589 4 3496 3502 3586 3588
3590 5 3591 3592 3593 3595 3596
3591 7 3541 3542 3545 3590 3592 3593 3595
3592 6 3541 3579 3582 3590 3591 3596
3593 6 3544 3545 3590 3591 3595 3597
3594 7 3469 3492 3495 3576 3595 3597 4619
3595 7 3576 3590 3591 3593 3594 3596 3597
3596 5 3576 3579 3590 3592 3595
3597 6 3495 3544 3593 3594 3595 4526
3598 7 3496 3583 3588 3599 3600 3601 3618
3599 5 3496 3502 3598 3600 3604
3600 7 3598 3599 3601 3602 3604 4129 4232
3601 5 3598 3600 3602 3618 3620
3602 6 3600 3601 3603 3613 3620 4129
3603 4 3602 3613 4129 4203
3604 5 3501 3502 3599 3600 4232
3605 5 3517 3606 3607 3611 3612
3606 5 3605 3607 3611 4616 4851
3607 9 3516 3605 3606 3609 3612 4616 4852 4853 4854
3608 4 3518 3522 3609 3612
3609 8 3413 3415 3518 3607 3608 3612 3614 4853
3610 5 3517 3577 3580 3581 3611
3611 7 3517 3580 3581 3605 3606 3610 4851
3612 7 3517 3519 3522 3605 3607 3608 3609
3613 5 3602 3603 3615 3620 4203
3614 8 3415 3518 3520 3524 3609 3616 3617 3619
3615 13 3387 3613 3616 3617 3619 3620 4094 4096 4098 4100 4101 4203 4206
3616 9 3380 3384 3387 3415 3421 3427 3614 3615 3617
3617 4 3614 3615 3616 3619
3618 7 3505 3583 3588 3598 3601 3619 3620
3619 8 3503 3505 3524 3614 3615 3617 3618 3620
3620 6 3601 3602 3613 3615 3618 3619
3621 5 3622 3623 3624 3625 3627
3622 4 3621 3623 3676 3677
3623 8 3621 3622 3624 3626 3675 3676 4362 4363
3624 5 3621 3623 3625 3626 3627
3625 4 3621 3624 3626 3627
3626 3 3623 3624 3625
3627 3 3621 3624 3625
3628 5 3629 3630 3631 3682 3698
3629 5 3628 3630 3640 3698 3701
3630 12 2811 3628 3629 3631 3633 3640 3641 4330 4331 4334 4335 4337
3631 8 3628 3630 3632 3633 3678 3679 3682 3688
3632 4 3631 3633 3679 3681
3633 7 3630 3631 3632 3680 3681 4336 4337
3634 6 3635 3636 3637 3638 3639 3723
3635 8 3634 3636 3638 3704 3708 3709 3711 3713
3636 4 3634 3635 3708 3723
3637 5 3634 3639 3654 3723 3726
3638 4 3634 3635 3639 3711
3639 7 3634 3637 3638 3646 3647 3654 3711
3640 6 3629 3630 3641 3643 3645 3701
3641 14 2794 2807 2808 2811 2812 2813 2862 2863 2864 2865 3630 3640 3643 3644
3642 2 3643 3644
3643 4 3640 3641 3642 3644
3644 5 2862 3641 3642 3643 3659
3645 5 3640 3699 3700 3701 3702
3646 5 3639 3647 3648 3651 3654
3647 9 2821 2823 2844 3639 3646 3651 3658 3711 3712
3648 6 3646 3649 3650 3651 3652 3654
3649 4 2485 3648 3650 3652
3650 3 3648 3649 3651
3651 4 3646 3647 3648 3650
3652 7 2485 3648 3649 3654 3655 3656 3657
3653 4 2480 3654 3655 3726
3654 8 3637 3639 3646 3648 3652 3653 3655 3726
3655 7 2480 2484 3652 3653 3654 3656 3657
3656 5 2484 2485 3652 3655 3657
3657 3 3652 3655 3656
3658 8 2821 2824 2867 3647 3661 3663 3712 4859
3659 6 2862 3644 3660 3661 3662 3714
3660 4 3659 3662 3710 3714
3661 7 2862 2866 2867 3658 3659 3662 3663
3662 6 3659 3660 3661 3663 3710 3712
3663 4 3658 3661 3662 3712
3664 6 2522 2524 2529 3665 3730 3731
3665 6 2522 3664 3666 3667 3669 3730
3666 5 3665 3668 3669 3730 3731
3667 5 2482 2486 2522 3665 3669
3668 7 3666 3669 3724 3727 3731 3732 3733
3669 9 2479 2482 3665 3666 3667 3668 3724 3725 3726
3670 5 3671 3673 3674 4607 4608
3671 5 3670 3673 3674 3683 3687
3672 5 3673 3685 3687 3688 4608
3673 5 3670 3671 3672 3687 4608
3674 3 3670 3671 4607
3675 7 3623 3676 3680 4336 4362 4397 4399
3676 5 3622 3623 3675 3677 3680
3677 5 3622 3676 3679 3680 3681
3678 4 3631 3679 3688 4607
3679 5 3631 3632 3677 3678 3681
3680 6 3633 3675 3676 3677 3681 4336
3681 5 3632 3633 3677 3679 3680
3682 5 3628 3631 3685 3688 3698
3683 5 3671 3684 3687 3696 3699
3684 5 3683 3685 3686 3687 3696
3685 7 3672 3682 3684 3686 3687 3688 3698
3686 5 3684 3685 3696 3697 3698
3687 6 3671 3672 3673 3683 3684 3685
3688 7 3631 3672 3678 3682 3685 4607 4608
3689 5 2542 3691 3692 3694 3695
3690 8 2526 2528 2541 2543 3692 3693 3728 3733
3691 5 3689 3692 3695 3717 3718
3692 9 2542 2543 3689 3690 3691 3693 3718 3719 3720
3693 7 3690 3692 3705 3706 3720 3727 3733
3694 3 2542 3689 3695
3695 5 3689 3691 3694 3716 3717
3696 6 3683 3684 3686 3697 3699 3700
3697 5 3686 3696 3698 3700 3701
3698 7 3628 3629 3682 3685 3686 3697 3701
3699 4 3645 3683 3696 3700
3700 6 3645 3696 3697 3699 3701 3702
3701 7 3629 3640 3645 3697 3698 3700 3702
3702 3 3645 3700 3701
3703 4 3704 3705 3707 3719
3704 6 3635 3703 3707 3708 3713 3714
3705 6 3693 3703 3706 3707 3719 3720
3706 7 3693 3705 3707 3708 3721 3727 3733
3707 5 3703 3704 3705 3706 3708
3708 8 3635 3636 3704 3706 3707 3721 3722 3723
3709 5 3635 3710 3711 3713 3714
3710 6 3660 3662 3709 3711 3712 3714
3711 7 3635 3638 3639 3647 3709 3710 3712
3712 6 3647 3658 3662 3663 3710 3711
3713 4 3635 3704 3709 3714
3714 6 3659 3660 3704 3709 3710 3713
3715 3 3716 3717 3718
3716 3 3695 3715 3717
3717 5 3691 3695 3715 3716 3718
3718 5 3691 3692 3715 3717 3719
3719 5 3692 3703 3705 3718 3720
3720 4 3692 3693 3705 3719
3721 4 3706 3708 3722 3727
3722 6 3708 3721 3723 3724 3725 3727
3723 7 3634 3636 3637 3708 3722 3725 3726
3724 5 3668 3669 3722 3725 3727
3725 5 3669 3722 3723 3724 3726
3726 8 2479 2480 3637 3653 3654 3669 3723 3725
3727 7 3668 3693 3706 3721 3722 3724 3733
3728 6 2527 2528 3690 3729 3732 3733
3729 5 2527 2529 3728 3731 3732
3730 4 3664 3665 3666 3731
3731 7 2529 3664 3666 3668 3729 3730 3732
3732 5 3668 3728 3729 3731 3733
3733 7 3668 3690 3693 3706 3727 3728 3732
3734 5 3735 3736 3737 3738 3740
3735 7 3734 3737 3739 3740 3817 3819 3868
3736 9 2931 3734 3738 3740 3741 3744 3745 3852 3853
3737 6 3734 3735 3738 3852 3863 3868
3738 4 3734 3736 3737 3852
3739 7 3735 3740 3741 3748 3782 3817 3818
3740 5 3734 3735 3736 3739 3741
3741 6 3736 3739 3740 3743 3744 3748
3742 8 2930 3033 3035 3743 3744 3745 3747 3749
3743 6 3741 3742 3744 3747 3748 3782
3744 5 3736 3741 3742 3743 3745
3745 5 2930 2931 3736 3742 3744
3746 4 3747 3749 3782 3799
3747 5 3742 3743 3746 3749 3782
3748 4 3739 3741 3743 3782
3749 7 3033 3036 3742 3746 3747 3799 3801
3750 6 3755 3757 3759 3791 4674 4691
3751 4 3752 3753 4528 4529
3752 6 3751 3753 3757 4528 4675 4680
3753 9 2869 2963 3751 3752 3757 4529 4536 4680 4681
3754 6 2871 2872 3755 4528 4674 4675
3755 3 3750 3754 4674
3756 5 3757 3758 3759 3762 3763
3757 9 3750 3752 3753 3756 3759 3763 4674 4675 4680
3758 5 3756 3759 3760 3762 3791
3759 5 3750 3756 3757 3758 3791
3760 5 3758 3761 3762 3791 4567
3761 7 3760 3762 3778 3787 3789 4535 4567
3762 7 3756 3758 3760 3761 3763 3778 4680
3763 4 3756 3757 3762 4680
3764 11 3103 3106 3107 3108 3174 3765 3766 3767 3768 3769 3770
3765 7 2917 2922 2925 3764 3766 3767 3770
3766 3 3764 3765 3767
3767 7 714 2917 3174 3764 3765 3766 4826
3768 5 3103 3109 3764 3769 3824
3769 7 3764 3768 3770 3776 3777 3824 3877
3770 9 2919 2922 3018 3023 3764 3765 3769 3871 3877
3771 5 3772 3773 3775 3873 3874
3772 8 3771 3773 3827 3848 3850 3854 3867 3873
3773 5 3771 3772 3774 3775 3827
3774 6 3773 3775 3776 3777 3821 3827
3775 5 3771 3773 3774 3777 3874
3776 5 3769 3774 3777 3821 3824
3777 6 3769 3774 3775 3776 3874 3877
3778 7 3761 3762 3779 3789 3790 4680 4682
3779 8 3778 3780 3781 3783 3784 3790 4682 4684
3780 4 3779 3784 3785 4684
3781 6 3779 3783 3790 3842 4685 4687
3782 11 3739 3743 3746 3747 3748 3785 3799 3802 3804 3818 4688
3783 7 3779 3781 3784 4685 4686 4687 4688
3784 6 3779 3780 3783 3785 4686 4688
3785 6 3780 3782 3784 3802 4684 4688
3786 7 3787 3788 3830 4676 4677 4679 4692
3787 7 3761 3786 3789 3830 4535 4677 4692
3788 8 3786 3830 3844 3845 3846 4676 4678 4679
3789 6 3761 3778 3787 3790 4677 4679
3790 8 3778 3779 3781 3789 3841 3842 3846 4679
3791 7 3750 3758 3759 3760 4535 4567 4691
3792 6 3796 3797 3798 3815 3816 4689
3793 6 3148 3796 3810 3812 4689 4690
3794 7 3095 3097 3143 3795 3837 3838 3839
3795 6 3143 3794 3796 3797 3839 3840
3796 7 3143 3148 3792 3793 3795 3797 4689
3797 6 3792 3795 3796 3798 3840 4687
3798 6 3792 3797 3814 3816 3820 4687
3799 6 3746 3749 3782 3801 3804 3806
3800 4 2954 3801 3805 3806
3801 6 2954 3036 3749 3799 3800 3806
3802 8 3782 3785 3803 3804 3805 3806 4533 4684
3803 6 2962 2963 3802 3805 4533 4536
3804 4 3782 3799 3802 3806
3805 8 2954 2960 2961 2962 3800 3802 3803 3806
3806 6 3799 3800 3801 3802 3804 3805
3807 6 3187 3808 3809 3811 3813 3870
3808 6 3807 3809 3825 3826 3866 3870
3809 8 3180 3181 3186 3187 3807 3808 3822 3826
3810 5 3148 3182 3793 3811 3812
3811 7 3182 3183 3187 3807 3810 3812 3813
3812 7 3793 3810 3811 3813 3869 3870 4690
3813 4 3807 3811 3812 3870
3814 5 3798 3816 3817 3819 3820
3815 5 3792 3816 3869 4689 4690
3816 7 3792 3798 3814 3815 3819 3868 3869
3817 6 3735 3739 3814 3818 3819 3820
3818 6 3739 3782 3817 3820 4687 4688
3819 5 3735 3814 3816 3817 3868
3820 5 3798 3814 3817 3818 4687
3821 8 3774 3776 3823 3824 3825 3826 3827 3866
3822 7 3078 3084 3110 3181 3809 3823 3826
3823 6 3109 3110 3821 3822 3824 3826
3824 6 3109 3768 3769 3776 3821 3823
3825 4 3808 3821 3826 3866
3826 6 3808 3809 3821 3822 3823 3825
3827 7 3772 3773 3774 3821 3848 3866 3867
3828 4 3829 3836 4676 4678
3829 6 3828 3836 3837 3839 3844 4678
3830 7 3786 3787 3788 4532 4568 4676 4692
3831 6 3832 3833 3834 3835 3855 3859
3832 3 3831 3835 3836
3833 8 3831 3835 3836 3837 3838 3859 3861 3862
3834 3 3831 3855 3859
3835 4 3831 3832 3833 3836
3836 6 3828 3829 3832 3833 3835 3837
3837 6 3794 3829 3833 3836 3838 3839
3838 7 3095 3097 3794 3833 3837 3862 4832
3839 6 3794 3795 3829 3837 3840 3844
3840 8 3795 3797 3839 3841 3843 3844 3845 4687
3841 6 3790 3840 3842 3843 3845 3846
3842 5 3781 3790 3841 3843 4687
3843 4 3840 3841 3842 4687
3844 6 3788 3829 3839 3840 3845 4678
3845 5 3788 3840 3841 3844 3846
3846 5 3788 3790 3841 3845 4679
3847 3 3850 3851 3854
3848 6 3772 3827 3854 3863 3865 3867
3849 5 2933 3850 3851 3853 3872
3850 7 3772 3847 3849 3851 3854 3872 3873
3851 5 3847 3849 3850 3853 3854
3852 6 3736 3737 3738 3853 3854 3863
3853 7 2931 2933 3736 3849 3851 3852 3854
3854 8 3772 3847 3848 3850 3851 3852 3853 3863
3855 5 3831 3834 3856 3857 3859
3856 3 3855 3857 3858
3857 4 3855 3856 3858 3859
3858 4 3856 3857 3859 3860
3859 8 3831 3833 3834 3855 3857 3858 3860 3861
3860 7 3099 3858 3859 3861 3862 4830 4831
3861 4 3833 3859 3860 3862
3862 6 3833 3838 3860 3861 4830 4832
3863 8 3737 3848 3852 3854 3864 3865 3868 3869
3864 6 3863 3865 3866 3867 3869 3870
3865 4 3848 3863 3864 3867
3866 7 3808 3821 3825 3827 3864 3867 3870
3867 6 3772 3827 3848 3864 3865 3866
3868 6 3735 3737 3816 3819 3863 3869
3869 8 3812 3815 3816 3863 3864 3868 3870 4690
3870 7 3807 3808 3812 3813 3864 3866 3869
3871 6 3023 3770 3872 3875 3876 3877
3872 9 2927 2933 3849 3850 3871 3873 3874 3875 3877
3873 5 3771 3772 3850 3872 3874
3874 6 3771 3775 3777 3872 3873 3877
3875 4 2927 3871 3872 3876
3876 6 2926 2927 2929 3023 3871 3875
3877 6 3769 3770 3777 3871 3872 3874
3878 16 962 963 966 1128 3218 3275 3879 3880 3881 3971 3973 3975 3985 3986 4764 4765
3879 5 3878 3880 3881 3882 3883
3880 5 966 3878 3879 3882 4757
3881 6 3878 3879 3883 3973 3974 3982
3882 6 1118 3879 3880 3883 3884 4757
3883 7 3879 3881 3882 3884 3888 3974 3982
3884 4 1118 3882 3883 3888
3885 3 3887 3890 3891
3886 6 1046 3887 3889 3910 3979 3981
3887 9 1044 1046 1124 3885 3886 3888 3889 3890 3891
3888 10 1118 1123 3883 3884 3887 3889 3890 3891 3979 3982
3889 4 3886 3887 3888 3979
3890 6 1123 1124 3885 3887 3888 3891
3891 4 3885 3887 3888 3890
3892 5 3893 3894 3895 3896 3898
3893 5 3892 3894 3896 3908 3910
3894 6 3892 3893 3898 3908 3953 3954
3895 6 3892 3896 3897 3898 3955 4530
3896 4 3892 3893 3895 4530
3897 6 3895 3912 3955 3957 3958 4530
3898 5 3892 3894 3895 3953 3955
3899 10 3900 3902 3904 3905 3907 3938 3940 3950 3951 3954
3900 4 3899 3904 3906 3907
3901 6 3902 3904 3966 3970 3975 3976
3902 7 3899 3901 3903 3904 3905 3965 3966
3903 5 3902 3905 3939 3965 3968
3904 6 3899 3900 3901 3902 3906 3970
3905 5 3899 3902 3903 3939 3940
3906 6 3900 3904 3907 3909 3970 3980
3907 7 3899 3900 3906 3908 3909 3910 3954
3908 5 3893 3894 3907 3910 3954
3909 4 3906 3907 3910 3980
3910 11 983 986 1046 3886 3893 3907 3908 3909 3911 3980 3981
3911 4 979 980 986 3910
3912 7 3897 3913 3914 3916 3957 3961 4530
3913 4 3912 3914 3916 3921
3914 3 3912 3913 4530
3915 1 4530
3916 10 3912 3913 3919 3920 3921 3931 3933 3934 3959 3961
3917 5 3918 3919 3921 3923 3990
3918 3 3917 3922 3923
3919 5 3916 3917 3920 3921 3990
3920 5 3916 3919 3933 3990 3995
3921 4 3913 3916 3917 3919
3922 5 2834 3918 3923 3989 3994
3923 5 3917 3918 3922 3989 3990
3924 8 3925 3926 3927 3929 3930 3944 3945 3983
3925 6 3295 3924 3930 3931 3936 3945
3926 5 3924 3927 3928 3983 3987
3927 4 3924 3926 3928 3929
3928 6 3926 3927 3929 3963 3967 3987
3929 6 3924 3927 3928 3944 3947 3967
3930 7 3281 3293 3295 3924 3925 3983 3988
3931 10 3916 3925 3932 3934 3936 3937 3945 3946 3948 3959
3932 8 3263 3931 3933 3934 3935 3937 3993 3995
3933 5 3916 3920 3932 3934 3995
3934 4 3916 3931 3932 3933
3935 6 3260 3263 3294 3932 3936 3937
3936 6 3294 3295 3925 3931 3935 3937
3937 4 3931 3932 3935 3936
3938 9 3899 3939 3940 3941 3942 3950 3956 4766 4767
3939 8 3903 3905 3938 3940 3942 3947 3949 3968
3940 4 3899 3905 3938 3939
3941 5 3938 3942 3946 3949 4766
3942 4 3938 3939 3941 3949
3943 4 3959 3960 3962 4766
3944 6 3924 3929 3945 3946 3947 3949
3945 5 3924 3925 3931 3944 3946
3946 7 3931 3941 3944 3945 3948 3949 4766
3947 6 3929 3939 3944 3949 3967 3968
3948 4 3931 3946 3959 4766
3949 6 3939 3941 3942 3944 3946 3947
3950 6 3899 3938 3951 3952 3953 3956
3951 4 3899 3950 3953 3954
3952 5 3950 3953 3955 3956 3958
3953 7 3894 3898 3950 3951 3952 3954 3955
3954 6 3894 3899 3907 3908 3951 3953
3955 6 3895 3897 3898 3952 3953 3958
3956 6 3938 3950 3952 3958 3962 4767
3957 5 3897 3912 3958 3960 3961
3958 7 3897 3952 3955 3956 3957 3960 3962
3959 7 3916 3931 3943 3948 3960 3961 4766
3960 6 3943 3957 3958 3959 3961 3962
3961 5 3912 3916 3957 3959 3960
3962 6 3943 3956 3958 3960 4766 4767
3963 6 3928 3964 3965 3967 3969 3987
3964 5 3963 3965 3966 3969 4765
3965 7 3902 3903 3963 3964 3966 3967 3968
3966 6 3901 3902 3964 3965 3975 4765
3967 6 3928 3929 3947 3963 3965 3968
3968 5 3903 3939 3947 3965 3967
3969 6 3963 3964 3986 3987 4764 4765
3970 9 3901 3904 3906 3972 3974 3976 3977 3978 3980
3971 5 3878 3972 3973 3975 3976
3972 5 3970 3971 3973 3974 3976
3973 5 3878 3881 3971 3972 3974
3974 7 3881 3883 3970 3972 3973 3978 3982
3975 6 3878 3901 3966 3971 3976 4765
3976 5 3901 3970 3971 3972 3975
3977 5 3970 3978 3979 3980 3981
3978 5 3970 3974 3977 3979 3982
3979 7 3886 3888 3889 3977 3978 3981 3982
3980 6 3906 3909 3910 3970 3977 3981
3981 5 3886 3910 3977 3979 3980
3982 6 3881 3883 3888 3974 3978 3979
3983 6 3924 3926 3930 3984 3987 3988
3984 5 3218 3983 3985 3987 3988
3985 5 3218 3878 3984 3986 3987
3986 5 3878 3969 3985 3987 4764
3987 8 3926 3928 3963 3969 3983 3984 3985 3986
3988 6 3218 3280 3281 3930 3983 3984
3989 6 3922 3923 3990 3992 3994 3995
3990 6 3917 3919 3920 3923 3989 3995
3991 5 2832 3262 3311 3992 3994
3992 6 3262 3989 3991 3993 3994 3995
3993 5 3262 3263 3932 3992 3995
3994 6 2832 2834 3922 3989 3991 3992
3995 7 3920 3932 3933 3989 3990 3992 3993
3996 5 3997 4001 4043 4047 4933
3997 5 3996 3998 4001 4932 4933
3998 5 3997 4000 4001 4002 4932
3999 5 4025 4047 4562 4932 4933
4000 6 1685 1686 3998 4002 4641 4932
4001 8 3996 3997 3998 4002 4008 4009 4043 4085
4002 6 1685 3998 4000 4001 4085 4936
4003 7 4004 4006 4008 4080 4081 4085 4940
4004 5 4003 4006 4007 4008 4009
4005 5 4006 4045 4064 4563 4942
4006 8 4003 4004 4005 4007 4064 4081 4090 4563
4007 5 4004 4006 4009 4043 4563
4008 5 4001 4003 4004 4009 4085
4009 5 4001 4004 4007 4008 4043
4010 3 4011 4015 4977
4011 4 4010 4012 4013 4977
4012 7 4011 4013 4054 4055 4058 4977 4978
4013 2 4011 4012
4014 8 4032 4035 4041 4056 4553 4554 4556 4974
4015 6 4010 4555 4556 4975 4976 4977
4016 6 4017 4018 4019 4024 4025 4931
4017 10 1745 1749 1752 1753 4016 4024 4025 4929 4930 4931
4018 5 4016 4019 4020 4560 4931
4019 7 4016 4018 4020 4021 4023 4024 4025
4020 7 4018 4019 4022 4023 4049 4560 4946
4021 5 4019 4023 4025 4561 4562
4022 7 4020 4028 4048 4049 4544 4560 4935
4023 8 4019 4020 4021 4050 4561 4942 4946 4947
4024 4 4016 4017 4019 4025
4025 12 1740 1741 1745 3999 4016 4017 4019 4021 4024 4561 4562 4932
4026 4 4027 4028 4543 4937
4027 5 4026 4028 4029 4937 4938
4028 7 4022 4026 4027 4029 4048 4543 4935
4029 9 4027 4028 4030 4031 4048 4938 4939 4943 4944
4030 3 4029 4031 4048
4031 7 4029 4030 4048 4051 4052 4944 4945
4032 5 4014 4034 4035 4037 4974
4033 6 4035 4041 4951 4957 4965 4967
4034 3 4032 4037 4974
4035 6 4014 4032 4033 4037 4041 4951
4036 5 3340 4037 4939 4943 4950
4037 6 4032 4034 4035 4036 4950 4951
4038 6 4060 4948 4949 4962 4963 4966
4039 6 4040 4042 4056 4963 4966 4967
4040 4 4039 4041 4056 4967
4041 6 4014 4033 4035 4040 4056 4967
4042 3 4039 4056 4963
4043 9 3996 4001 4007 4009 4044 4045 4047 4563 4942
4044 5 4043 4047 4561 4562 4942
4045 4 4005 4043 4563 4942
4046 5 4050 4064 4942 4952 4953
4047 6 3996 3999 4043 4044 4562 4933
4048 10 4022 4028 4029 4030 4031 4049 4050 4051 4935 4946
4049 4 4020 4022 4048 4946
4050 10 4023 4046 4048 4051 4942 4946 4947 4948 4952 4955
4051 5 4031 4048 4050 4052 4948
4052 5 4031 4051 4945 4948 4949
4053 4 4054 4055 4058 4559
4054 4 4012 4053 4055 4058
4055 4 4012 4053 4054 4559
4056 9 4014 4039 4040 4041 4042 4549 4556 4557 4558
4057 5 4548 4551 4552 4557 4559
4058 6 4012 4053 4054 4551 4559 4978
4059 6 4061 4062 4063 4064 4092 4953
4060 8 4038 4062 4546 4547 4948 4954 4955 4962
4061 7 4059 4063 4071 4077 4091 4092 4093
4062 7 4059 4060 4063 4075 4547 4953 4954
4063 6 4059 4061 4062 4075 4077 4547
4064 8 4005 4006 4046 4059 4090 4092 4942 4953
4065 4 4066 4067 4069 4070
4066 4 4065 4067 4069 4968
4067 6 4 4065 4066 4537 4968 4969
4068 4 4073 4076 4088 4968
4069 5 4065 4066 4070 4073 4968
4070 4 4065 4069 4073 4075
4071 7 4061 4072 4074 4075 4076 4077 4093
4072 3 4071 4075 4077
4073 7 4068 4069 4070 4074 4075 4076 4968
4074 4 4071 4073 4075 4076
4075 9 4062 4063 4070 4071 4072 4073 4074 4077 4547
4076 7 4068 4071 4073 4074 4088 4089 4093
4077 5 4061 4063 4071 4072 4075
4078 6 4079 4080 4081 4082 4940 4941
4079 6 4 4078 4082 4537 4637 4941
4080 4 4003 4078 4081 4940
4081 9 4003 4006 4078 4080 4082 4090 4545 4958 4959
4082 5 4 4078 4079 4081 4545
4083 5 1688 4084 4086 4636 4936
4084 5 4083 4085 4086 4936 4940
4085 7 4001 4002 4003 4008 4084 4936 4940
4086 6 4083 4084 4087 4636 4940 4941
4087 4 4086 4636 4637 4941
4088 6 4068 4076 4089 4545 4961 4968
4089 7 4076 4088 4090 4093 4958 4959 4961
4090 8 4006 4064 4081 4089 4091 4092 4093 4958
4091 4 4061 4090 4092 4093
4092 5 4059 4061 4064 4090 4091
4093 6 4061 4071 4076 4089 4090 4091
4094 5 3615 4095 4096 4097 4101
4095 5 4094 4097 4099 4101 4108
4096 7 3381 3385 3615 4094 4097 4098 4099
4097 4 4094 4095 4096 4099
4098 5 3381 3383 3387 3615 4096
4099 7 3385 3446 4095 4096 4097 4102 4108
4100 5 3615 4101 4106 4205 4206
4101 6 3615 4094 4095 4100 4106 4108
4102 6 3446 4099 4104 4105 4107 4108
4103 7 4104 4105 4107 4143 4197 4807 4812
4104 5 3446 4102 4103 4105 4812
4105 4 4102 4103 4104 4107
4106 7 4100 4101 4107 4108 4138 4141 4205
4107 7 4102 4103 4105 4106 4108 4141 4143
4108 6 4095 4099 4101 4102 4106 4107
4109 7 4111 4112 4114 4115 4174 4175 4225
4110 7 4111 4112 4115 4145 4148 4149 4186
4111 8 4109 4110 4112 4113 4114 4170 4186 4220
4112 4 4109 4110 4111 4115
4113 3 4111 4114 4170
4114 6 4109 4111 4113 4170 4225 4227
4115 7 4109 4110 4112 4145 4174 4233 4234
4116 4 4117 4118 4119 4708
4117 7 1422 1428 4116 4118 4123 4124 4708
4118 6 4116 4117 4119 4121 4124 4125
4119 4 4116 4118 4120 4121
4120 4 3569 4119 4121 4156
4121 7 4118 4119 4120 4124 4125 4126 4156
4122 4 4123 4125 4127 4182
4123 8 1428 4117 4122 4124 4125 4128 4181 4182
4124 5 4117 4118 4121 4123 4125
4125 7 4118 4121 4122 4123 4124 4126 4127
4126 5 4121 4125 4127 4151 4156
4127 6 4122 4125 4126 4151 4180 4182
4128 5 1428 4123 4181 4216 4585
4129 12 3600 3602 3603 4130 4133 4135 4201 4202 4203 4207 4231 4232
4130 4 4129 4131 4133 4231
4131 8 4130 4132 4133 4134 4172 4187 4231 4857
4132 4 4131 4172 4173 4187
4133 5 4129 4130 4131 4134 4135
4134 6 4131 4133 4135 4137 4198 4857
4135 6 4129 4133 4134 4137 4202 4204
4136 5 4137 4139 4140 4198 4200
4137 7 4134 4135 4136 4138 4139 4198 4204
4138 6 4106 4137 4139 4141 4204 4205
4139 6 4136 4137 4138 4140 4141 4142
4140 6 4136 4139 4142 4196 4197 4200
4141 6 4106 4107 4138 4139 4142 4143
4142 5 4139 4140 4141 4143 4197
4143 5 4103 4107 4141 4142 4197
4144 9 3497 3498 3501 4145 4147 4148 4150 4232 4233
4145 5 4110 4115 4144 4148 4233
4146 7 4148 4149 4153 4154 4155 4180 4183
4147 7 3498 3575 4144 4148 4150 4152 4155
4148 8 4110 4144 4145 4146 4147 4149 4150 4155
4149 5 4110 4146 4148 4183 4186
4150 3 4144 4147 4148
4151 7 4126 4127 4152 4153 4156 4157 4180
4152 8 3571 3575 4147 4151 4153 4154 4155 4157
4153 5 4146 4151 4152 4154 4180
4154 5 4146 4152 4153 4155 4180
4155 5 4146 4147 4148 4152 4154
4156 6 3569 4120 4121 4126 4151 4157
4157 5 3569 3571 4151 4152 4156
4158 9 1951 1977 4159 4160 4161 4162 4168 4855 4856
4159 8 4158 4160 4161 4163 4164 4209 4210 4226
4160 4 4158 4159 4163 4855
4161 5 4158 4159 4162 4209 4211
4162 11 1727 1728 1731 1732 1951 4158 4161 4189 4211 4213 4632
4163 5 4159 4160 4223 4226 4855
4164 6 4159 4176 4178 4208 4210 4226
4165 5 1500 1936 4166 4167 4168
4166 6 1500 4165 4167 4170 4220 4221
4167 5 4165 4166 4168 4169 4170
4168 11 1936 1974 1977 4158 4165 4167 4169 4171 4725 4855 4856
4169 6 4167 4168 4170 4171 4224 4227
4170 8 4111 4113 4114 4166 4167 4169 4220 4227
4171 5 4168 4169 4223 4224 4855
4172 6 4131 4132 4173 4179 4230 4231
4173 7 4132 4172 4178 4179 4187 4208 4212
4174 5 4109 4115 4175 4177 4234
4175 6 4109 4174 4176 4177 4225 4226
4176 6 4164 4175 4177 4178 4179 4226
4177 7 4174 4175 4176 4179 4228 4230 4234
4178 5 4164 4173 4176 4179 4208
4179 6 4172 4173 4176 4177 4178 4230
4180 7 4127 4146 4151 4153 4154 4182 4183
4181 6 4123 4128 4182 4184 4216 4217
4182 7 4122 4123 4127 4180 4181 4183 4184
4183 7 4146 4149 4180 4182 4184 4185 4186
4184 7 4181 4182 4183 4185 4217 4219 4220
4185 4 4183 4184 4186 4220
4186 6 4110 4111 4149 4183 4185 4220
4187 7 4131 4132 4173 4188 4190 4212 4857
4188 6 4187 4190 4191 4192 4212 4214
4189 10 1694 1695 1732 4162 4192 4194 4213 4632 4635 4639
4190 7 4187 4188 4191 4193 4199 4857 4858
4191 6 4188 4190 4192 4193 4194 4199
4192 6 4188 4189 4191 4194 4213 4214
4193 3 4190 4191 4199
4194 5 1694 4189 4191 4192 4199
4195 3 4196 4199 4200
4196 6 1694 4140 4195 4197 4199 4200
4197 7 1694 4103 4140 4142 4143 4196 4807
4198 6 4134 4136 4137 4200 4857 4858
4199 9 1694 4190 4191 4193 4194 4195 4196 4200 4858
4200 7 4136 4140 4195 4196 4198 4199 4858
4201 5 4129 4202 4203 4205 4207
4202 6 4129 4135 4201 4204 4205 4207
4203 7 3603 3613 3615 4129 4201 4205 4206
4204 5 4135 4137 4138 4202 4205
4205 8 4100 4106 4138 4201 4202 4203 4204 4206
4206 4 3615 4100 4203 4205
4207 3 4129 4201 4202
4208 5 4164 4173 4178 4210 4212
4209 6 4159 4161 4210 4211 4213 4214
4210 6 4159 4164 4208 4209 4212 4214
4211 4 4161 4162 4209 4213
4212 6 4173 4187 4188 4208 4210 4214
4213 6 4162 4189 4192 4209 4211 4214
4214 6 4188 4192 4209 4210 4212 4213
4215 4 1373 4216 4217 4218
4216 6 1373 4128 4181 4215 4217 4585
4217 6 4181 4184 4215 4216 4218 4219
4218 6 1373 1500 4215 4217 4219 4221
4219 5 4184 4217 4218 4220 4221
4220 8 4111 4166 4170 4184 4185 4186 4219 4221
4221 5 1500 4166 4218 4219 4220
4222 5 4223 4224 4225 4226 4227
4223 6 4163 4171 4222 4224 4226 4855
4224 5 4169 4171 4222 4223 4227
4225 6 4109 4114 4175 4222 4226 4227
4226 8 4159 4163 4164 4175 4176 4222 4223 4225
4227 6 4114 4169 4170 4222 4224 4225
4228 7 4177 4229 4230 4231 4232 4234 4235
4229 3 4228 4230 4231
4230 6 4172 4177 4179 4228 4229 4231
4231 8 4129 4130 4131 4172 4228 4229 4230 4232
4232 9 3501 3600 3604 4129 4144 4228 4231 4233 4235
4233 6 4115 4144 4145 4232 4234 4235
4234 6 4115 4174 4177 4228 4233 4235
4235 4 4228 4232 4233 4234
4236 6 4237 4238 4240 4241 4243 4313
4237 7 3010 3014 4236 4238 4239 4240 4244
4238 7 4236 4237 4239 4248 4307 4308 4313
4239 4 3010 4237 4238 4248
4240 7 2881 2885 4236 4237 4241 4244 4317
4241 6 4236 4240 4242 4243 4317 4318
4242 5 4241 4243 4318 4321 4322
4243 6 4236 4241 4242 4305 4313 4322
4244 5 2885 2886 3014 4237 4240
4245 6 4246 4252 4253 4311 4369 4376
4246 4 4245 4247 4253 4369
4247 11 2969 2971 2972 4246 4250 4253 4279 4286 4287 4295 4369
4248 10 2969 2991 3010 3011 4238 4239 4249 4250 4251 4308
4249 5 4248 4251 4252 4308 4311
4250 5 2969 4247 4248 4251 4253
4251 5 4248 4249 4250 4252 4253
4252 5 4245 4249 4251 4253 4311
4253 6 4245 4246 4247 4250 4251 4252
4254 4 4255 4256 4261 4262
4255 6 4254 4256 4261 4368 4373 4384
4256 7 3320 4254 4255 4262 4373 4375 4862
4257 8 4258 4259 4260 4355 4360 4378 4381 4382
4258 5 4257 4276 4360 4378 4381
4259 4 4257 4260 4355 4358
4260 7 3320 4257 4259 4261 4262 4358 4382
4261 6 4254 4255 4260 4262 4382 4384
4262 5 3320 4254 4256 4260 4261
4263 5 4266 4267 4268 4271 4274
4264 6 4265 4267 4269 4270 4271 4401
4265 4 4264 4270 4396 4401
4266 6 4263 4268 4274 4360 4903 4904
4267 6 4263 4264 4268 4269 4271 4386
4268 7 4263 4266 4267 4354 4360 4386 4387
4269 8 4264 4267 4333 4334 4386 4388 4389 4401
4270 7 4264 4265 4271 4365 4367 4396 4398
4271 8 4263 4264 4267 4270 4274 4361 4367 4581
4272 5 4273 4278 4314 4316 4379
4273 7 4272 4275 4277 4278 4301 4379 4385
4274 7 4263 4266 4271 4581 4901 4902 4903
4275 5 4273 4276 4277 4378 4385
4276 7 4258 4275 4277 4360 4378 4903 4905
4277 6 4273 4275 4276 4301 4901 4903
4278 5 4272 4273 4300 4301 4314
4279 7 4247 4281 4282 4283 4286 4291 4295
4280 9 2966 2967 2972 2999 4281 4284 4285 4286 4287
4281 5 4279 4280 4283 4285 4286
4282 8 3239 3240 3241 4279 4283 4285 4291 4292
4283 4 4279 4281 4282 4285
4284 4 2999 3241 4280 4285
4285 6 3241 4280 4281 4282 4283 4284
4286 5 4247 4279 4280 4281 4287
4287 5 2966 2972 4247 4280 4286
4288 7 4289 4290 4291 4294 4296 4371 4375
4289 5 4288 4291 4292 4293 4375
4290 3 4288 4291 4296
4291 8 4279 4282 4288 4289 4290 4292 4295 4296
4292 7 3215 3236 3239 4282 4289 4291 4293
4293 5 3213 3215 4289 4292 4375
4294 5 4288 4295 4296 4369 4371
4295 6 4247 4279 4291 4294 4296 4369
4296 5 4288 4290 4291 4294 4295
4297 9 4299 4302 4303 4304 4339 4340 4345 4348 4350
4298 4 4299 4300 4304 4580
4299 6 4297 4298 4300 4304 4314 4348
4300 7 4278 4298 4299 4301 4314 4580 4898
4301 7 4273 4277 4278 4300 4898 4899 4901
4302 5 4297 4303 4323 4324 4350
4303 5 4297 4302 4323 4338 4339
4304 6 4297 4298 4299 4340 4577 4580
4305 6 4243 4306 4307 4308 4313 4322
4306 7 4305 4308 4309 4310 4322 4377 4384
4307 4 4238 4305 4308 4313
4308 8 4238 4248 4249 4305 4306 4307 4309 4311
4309 4 4306 4308 4310 4311
4310 5 4306 4309 4311 4312 4384
4311 8 4245 4249 4252 4308 4309 4310 4312 4376
4312 4 4310 4311 4376 4384
4313 5 4236 4238 4243 4305 4307
4314 7 4272 4278 4299 4300 4315 4316 4348
4315 6 4314 4316 4317 4319 4320 4348
4316 7 4272 4314 4315 4320 4321 4377 4379
4317 11 2881 2897 4240 4241 4315 4318 4319 4346 4347 4348 4349
4318 5 4241 4242 4317 4319 4321
4319 5 4315 4317 4318 4320 4321
4320 4 4315 4316 4319 4321
4321 7 4242 4316 4318 4319 4320 4322 4377
4322 6 4242 4243 4305 4306 4321 4377
4323 7 4302 4303 4324 4327 4338 4342 4576
4324 6 4302 4323 4325 4327 4350 4578
4325 9 2889 2892 4324 4326 4328 4350 4578 4579 4909
4326 3 2892 4325 4350
4327 4 4323 4324 4576 4578
4328 4 4325 4579 4908 4909
4329 5 4330 4335 4336 4400 4402
4330 7 3630 4329 4331 4332 4333 4335 4402
4331 4 3630 4330 4332 4334
4332 4 4330 4331 4333 4334
4333 7 4269 4330 4332 4334 4401 4402 4403
4334 11 2811 3303 3307 3630 4269 4331 4332 4333 4389 4392 4394
4335 5 3630 4329 4330 4336 4337
4336 8 3633 3675 3680 4329 4335 4337 4399 4400
4337 4 3630 3633 4335 4336
4338 5 4303 4323 4339 4342 4344
4339 6 4297 4303 4338 4340 4341 4344
4340 5 4297 4304 4339 4341 4577
4341 5 4339 4340 4343 4344 4577
4342 4 4323 4338 4343 4344
4343 3 4341 4342 4344
4344 5 4338 4339 4341 4342 4343
4345 6 4297 4346 4348 4349 4350 4352
4346 4 4317 4345 4348 4349
4347 4 2897 4317 4349 4351
4348 7 4297 4299 4314 4315 4317 4345 4346
4349 6 4317 4345 4346 4347 4351 4352
4350 9 2892 4297 4302 4324 4325 4326 4345 4351 4352
4351 6 2892 2897 4347 4349 4350 4352
4352 4 4345 4349 4350 4351
4353 3 4354 4355 4360
4354 6 4268 4353 4355 4356 4360 4387
4355 8 4257 4259 4353 4354 4356 4357 4358 4360
4356 6 4354 4355 4357 4359 4387 4390
4357 5 3320 4355 4356 4358 4359
4358 5 3320 4259 4260 4355 4357
4359 6 3315 3316 3320 4356 4357 4390
4360 10 4257 4258 4266 4268 4276 4353 4354 4355 4904 4905
4361 4 4271 4367 4581 4900
4362 7 3623 3675 4363 4364 4365 4397 4398
4363 4 3623 4362 4364 4900
4364 5 4362 4363 4365 4366 4900
4365 6 4270 4362 4364 4366 4367 4398
4366 4 4364 4365 4367 4900
4367 6 4270 4271 4361 4365 4366 4900
4368 8 4255 4370 4371 4372 4373 4374 4376 4384
4369 8 4245 4246 4247 4294 4295 4370 4371 4376
4370 4 4368 4369 4371 4376
4371 7 4288 4294 4368 4369 4370 4374 4375
4372 4 4368 4373 4374 4375
4373 5 4255 4256 4368 4372 4375
4374 4 4368 4371 4372 4375
4375 12 3212 3213 3298 4256 4288 4289 4293 4371 4372 4373 4374 4862
4376 7 4245 4311 4312 4368 4369 4370 4384
4377 9 4306 4316 4321 4322 4379 4380 4382 4383 4384
4378 7 4257 4258 4275 4276 4379 4381 4385
4379 9 4272 4273 4316 4377 4378 4380 4381 4382 4385
4380 3 4377 4379 4382
4381 5 4257 4258 4378 4379 4382
4382 9 4257 4260 4261 4377 4379 4380 4381 4383 4384
4383 3 4377 4382 4384
4384 10 4255 4261 4306 4310 4312 4368 4376 4377 4382 4383
4385 4 4273 4275 4378 4379
4386 5 4267 4268 4269 4387 4388
4387 8 4268 4354 4356 4386 4388 4390 4391 4393
4388 5 4269 4386 4387 4389 4391
4389 6 4269 4334 4388 4391 4392 4393
4390 8 3307 3316 3317 4356 4359 4387 4393 4395
4391 4 4387 4388 4389 4393
4392 4 4334 4389 4393 4394
4393 7 4387 4389 4390 4391 4392 4394 4395
4394 5 3307 4334 4392 4393 4395
4395 4 3307 4390 4393 4394
4396 8 4265 4270 4397 4398 4400 4401 4402 4403
4397 6 3675 4362 4396 4398 4399 4400
4398 5 4270 4362 4365 4396 4397
4399 4 3675 4336 4397 4400
4400 6 4329 4336 4396 4397 4399 4402
4401 6 4264 4265 4269 4333 4396 4403
4402 6 4329 4330 4333 4396 4400 4403
4403 4 4333 4396 4401 4402
4404 7 891 896 918 920 4406 4407 4408
4405 7 920 924 4407 4409 4471 4473 4477
4406 6 891 892 4404 4408 4456 4458
4407 5 920 4404 4405 4408 4409
4408 7 4404 4406 4407 4409 4449 4456 4473
4409 4 4405 4407 4408 4473
4410 5 4412 4413 4444 4445 4447
4411 6 2688 2691 2744 4412 4502 4989
4412 7 2744 4410 4411 4413 4441 4447 4989
4413 7 4410 4412 4432 4444 4501 4507 4989
4414 7 4415 4419 4420 4459 4461 4504 4990
4415 6 4414 4420 4431 4435 4436 4990
4416 6 4418 4419 4424 4474 4625 4627
4417 3 4419 4459 4474
4418 9 4416 4419 4420 4435 4450 4620 4621 4627 4628
4419 7 4414 4416 4417 4418 4420 4459 4474
4420 5 4414 4415 4418 4419 4435
4421 3 4422 4423 4497
4422 6 4421 4423 4495 4497 4622 4624
4423 8 2758 4421 4422 4487 4496 4497 4622 4994
4424 6 4416 4472 4474 4475 4623 4625
4425 3 4426 4429 4430
4426 7 522 4425 4427 4429 4430 4455 4499
4427 4 4426 4455 4499 4500
4428 4 522 529 4429 4470
4429 7 522 4425 4426 4428 4430 4465 4470
4430 8 2712 2715 4425 4426 4429 4465 4468 4499
4431 4 4415 4434 4436 4990
4432 9 4413 4433 4442 4444 4445 4450 4501 4620 4621
4433 5 4432 4434 4442 4621 4990
4434 6 4431 4433 4435 4436 4621 4990
4435 6 4415 4418 4420 4434 4436 4621
4436 4 4415 4431 4434 4435
4437 7 2717 2721 2759 4438 4439 4494 4993
4438 4 4437 4439 4478 4494
4439 7 2679 2721 4437 4438 4478 4503 4990
4440 1 4990
4441 6 2686 2743 2744 4412 4443 4447
4442 6 4432 4433 4445 4446 4448 4990
4443 5 2686 4441 4446 4447 4990
4444 4 4410 4413 4432 4445
4445 7 4410 4432 4442 4444 4446 4447 4448
4446 6 4442 4443 4445 4447 4448 4990
4447 6 4410 4412 4441 4443 4445 4446
4448 3 4442 4445 4446
4449 7 4408 4452 4454 4456 4473 4476 4987
4450 7 4418 4432 4451 4501 4620 4623 4628
4451 6 4450 4452 4475 4501 4623 4987
4452 5 4449 4451 4475 4476 4987
4453 5 4454 4455 4456 4457 4458
4454 5 4449 4453 4455 4456 4987
4455 9 522 530 4426 4427 4453 4454 4457 4500 4987
4456 7 4406 4408 4449 4453 4454 4458 4473
4457 6 528 530 892 4453 4455 4458
4458 5 892 4406 4453 4456 4457
4459 6 4414 4417 4419 4461 4464 4474
4460 5 4461 4462 4463 4464 4506
4461 7 4414 4459 4460 4464 4504 4506 4988
4462 6 817 905 4460 4463 4505 4506
4463 5 905 4460 4462 4464 4474
4464 5 4459 4460 4461 4463 4474
4465 5 4429 4430 4468 4469 4470
4466 5 564 4467 4468 4469 4470
4467 4 564 2710 4466 4468
4468 7 2710 2715 4430 4465 4466 4467 4469
4469 4 4465 4466 4468 4470
4470 8 529 561 564 4428 4429 4465 4466 4469
4471 5 4405 4472 4473 4474 4477
4472 6 4424 4471 4473 4474 4475 4623
4473 9 4405 4408 4409 4449 4456 4471 4472 4475 4476
4474 11 905 4416 4417 4419 4424 4459 4463 4464 4471 4472 4477
4475 7 4424 4451 4452 4472 4473 4476 4623
4476 4 4449 4452 4473 4475
4477 7 824 905 907 924 4405 4471 4474
4478 9 4438 4439 4479 4480 4483 4489 4492 4494 4503
4479 2 4478 4480
4480 9 4478 4479 4481 4482 4483 4488 4489 4490 4991
4481 5 881 4480 4482 4483 4505
4482 6 876 880 881 4480 4481 4538
4483 6 4478 4480 4481 4503 4505 4988
4484 4 4486 4491 4992 4994
4485 5 4486 4487 4489 4491 4493
4486 5 4484 4485 4487 4491 4994
4487 6 4423 4485 4486 4493 4496 4994
4488 3 4480 4490 4991
4489 7 4478 4480 4485 4490 4491 4492 4493
4490 6 4480 4488 4489 4491 4991 4992
4491 6 4484 4485 4486 4489 4490 4992
4492 4 4478 4489 4493 4494
4493 8 4485 4487 4489 4492 4494 4495 4496 4497
4494 8 4437 4438 4478 4492 4493 4495 4624 4993
4495 5 4422 4493 4494 4497 4624
4496 4 4423 4487 4493 4497
4497 6 4421 4422 4423 4493 4495 4496
4498 5 4499 4500 4501 4507 4987
4499 7 2712 4426 4427 4430 4498 4500 4507
4500 5 4427 4455 4498 4499 4987
4501 7 4413 4432 4450 4451 4498 4507 4987
4502 5 2688 2689 4411 4508 4989
4503 6 4439 4478 4483 4504 4988 4990
4504 5 4414 4461 4503 4988 4990
4505 9 816 817 819 881 4462 4481 4483 4506 4988
4506 5 4460 4461 4462 4505 4988
4507 7 2712 4413 4498 4499 4501 4508 4989
4508 5 2689 2712 4502 4507 4989
4509 6 784 786 3088 4510 4511 4512
4510 5 643 786 788 4509 4512
4511 5 3088 3090 3091 4509 4512
4512 6 643 3086 3091 4509 4510 4511
4513 8 383 385 386 435 438 1595 1610 4514
4514 5 434 435 1514 1595 4513
4515 7 676 678 743 746 945 1145 4516
4516 7 945 946 947 948 1140 1145 4515
4517 5 626 629 630 631 717
4518 8 1321 1323 1324 1325 1326 2449 2560 4519
4519 6 1326 2555 2557 2559 2560 4518
4520 9 1371 1403 1494 1495 1499 1502 1934 1990 4521
4521 6 1495 1934 1937 1940 1990 4520
4522 5 2085 2098 2100 2103 4523
4523 8 2085 2100 2303 2305 2308 2383 2385 4522
4524 8 1574 3060 3102 3150 4643 4644 4776 4777
4525 5 17 18 91 3545 4526
4526 10 90 91 104 105 3491 3495 3544 3545 3597 4525
4527 6 2868 2869 2871 2872 4528 4529
4528 7 2872 3751 3752 3754 4527 4529 4675
4529 5 2869 3751 3753 4527 4528
4530 6 3895 3896 3897 3912 3914 3915
4531 3 4534 4568 4692
4532 3 3830 4568 4676
4533 6 3802 3803 4536 4681 4683 4684
4534 4 4531 4568 4691 4692
4535 6 3761 3787 3791 4567 4691 4692
4536 5 2963 3753 3803 4533 4681
4537 8 1 2 4 2571 4067 4079 4538 4637
4538 8 1 876 878 879 2590 4482 4537 4602
4539 4 2243 2246 2247 4540
4540 7 2242 2243 2244 2245 2247 2271 4539
4541 5 1204 1241 1279 2420 4542
4542 7 1204 1205 1209 1210 1238 1241 4541
4543 10 4026 4028 4544 4609 4929 4930 4931 4934 4935 4937
4544 6 4022 4543 4560 4931 4934 4935
4545 9 4 4081 4082 4088 4959 4960 4961 4968 4969
4546 4 4060 4547 4962 4963
4547 5 4060 4062 4063 4075 4546
4548 6 4057 4550 4551 4557 4970 4971
4549 7 4056 4550 4551 4556 4558 4970 4975
4550 5 4548 4549 4557 4558 4970
4551 10 4057 4058 4548 4549 4559 4970 4971 4975 4976 4978
4552 2 4057 4559
4553 5 4014 4554 4555 4556 4974
4554 3 4014 4553 4974
4555 3 4015 4553 4556
4556 7 4014 4015 4056 4549 4553 4555 4975
4557 5 4056 4057 4548 4550 4558
4558 4 4056 4549 4550 4557
4559 6 4053 4055 4057 4058 4551 4552
4560 5 4018 4020 4022 4544 4931
4561 6 4021 4023 4025 4044 4562 4942
4562 6 3999 4021 4025 4044 4047 4561
4563 5 4005 4006 4007 4043 4045
4564 5 1838 1839 1840 4566 4897
4565 3 4566 4896 4897
4566 4 4564 4565 4896 4897
4567 4 3760 3761 3791 4535
4568 5 3830 4531 4532 4534 4692
4569 5 2466 2473 2474 2478 4570
4570 6 2466 2469 2473 2487 2489 4569
4571 3 2444 4572 4749
4572 5 2444 2554 4571 4735 4736
4573 6 2515 2516 2534 4574 4739 4743
4574 7 2518 2521 2527 2529 4573 4739 4743
4575 4 1914 1918 4727 4728
4576 4 4323 4327 4578 4579
4577 4 4304 4340 4341 4580
4578 5 4324 4325 4327 4576 4579
4579 6 4325 4328 4576 4578 4906 4908
4580 5 4298 4300 4304 4577 4898
4581 5 4271 4274 4361 4900 4902
4582 3 1431 1436 4585
4583 4 1383 1390 1394 4584
4584 2 1390 4583
4585 9 1373 1427 1428 1431 1434 1436 4128 4216 4582
4586 4 2957 4669 4672 4906
4587 7 3072 3076 3140 3142 3164 3167 4588
4588 3 3140 3142 4587
4589 7 1571 3060 3062 3063 3127 4590 4835
4590 4 1571 1574 3060 4589
4591 9 3052 3123 3124 3128 3137 3139 4592 4837 4838
4592 5 3131 3137 3138 3139 4591
4593 4 505 513 515 4597
4594 6 572 573 574 579 4719 4720
4595 6 549 556 589 4722 4723 4724
4596 9 467 468 517 518 520 521 2060 2061 2066
4597 6 505 506 515 1194 1780 4593
4598 4 2657 2658 4600 4603
4599 3 2627 2629 4600
4600 7 2579 2627 2629 2658 4598 4599 4603
4601 5 2570 2589 2590 2591 4602
4602 7 1 3 2570 2572 2590 4538 4601
4603 10 2596 2604 2614 2629 2657 4598 4600 4924 4925 4926
4604 3 2613 2615 4605
4605 7 2610 2611 2612 2613 2615 4604 4925
4606 7 2790 2791 2793 2824 2867 4859 4860
4607 5 3670 3674 3678 3688 4608
4608 5 3670 3672 3673 3688 4607
4609 6 4543 4614 4816 4817 4929 4937
4610 5 3352 4806 4819 4821 4823
4611 9 3322 3323 3350 3352 3445 4612 4801 4818 4819
4612 3 3445 4611 4818
4613 6 3344 3348 3352 3354 4802 4804
4614 8 3340 3449 3460 3463 4609 4815 4817 4937
4615 6 7 3372 3451 3452 4844 4849
4616 7 3514 3515 3516 3606 3607 4618 4851
4617 4 3492 3494 3495 4619
4618 9 3514 3541 3565 3567 3568 3582 4616 4850 4851
4619 4 3492 3495 3594 4617
4620 5 4418 4432 4450 4621 4628
4621 6 4418 4432 4433 4434 4435 4620
4622 5 2758 4422 4423 4624 4993
4623 9 4424 4450 4451 4472 4475 4625 4626 4628 4629
4624 5 4422 4494 4495 4622 4993
4625 6 4416 4424 4623 4626 4627 4628
4626 4 4623 4625 4628 4629
4627 4 4416 4418 4625 4628
4628 8 4418 4450 4620 4623 4625 4626 4627 4629
4629 3 4623 4626 4628
4630 6 1663 1669 2640 4631 4912 4913
4631 5 1660 1669 4630 4913 4922
4632 6 1705 1732 4162 4189 4635 4639
4633 5 1651 1670 1702 1703 4642
4634 8 1648 1676 1721 1722 1741 1743 1746 4641
4635 7 1695 1700 1701 1705 4189 4632 4639
4636 7 1688 1689 1692 4083 4086 4087 4637
4637 7 1689 2571 4079 4087 4537 4636 4941
4638 6 1690 1691 1692 4640 4920 4921
4639 3 4189 4632 4635
4640 5 1689 1692 2568 4638 4921
4641 7 1686 1721 1725 1741 4000 4634 4932
4642 8 1661 1662 1670 1671 1678 1682 1702 4633
4643 4 3100 3102 4524 4644
4644 4 3100 4524 4643 4776
4645 7 327 329 1552 1553 1555 1556 1557
4646 5 4783 4784 4789 4790 4791
4647 5 1563 4649 4655 4657 4782
4648 5 1619 1622 1628 4650 4782
4649 4 4647 4650 4781 4782
4650 6 1628 1631 4648 4649 4781 4782
4651 7 1521 1525 1532 1593 1594 4783 4784
4652 3 4653 4654 4656
4653 5 1612 4652 4654 4655 4656
4654 6 1597 1612 4652 4653 4656 4658
4655 4 1612 4647 4653 4657
4656 5 1613 4652 4653 4654 4658
4657 5 1563 1564 1612 4647 4655
4658 6 1516 1597 1613 1617 4654 4656
4659 4 1572 1573 1574 4777
4660 10 2185 2187 2189 2190 2200 2206 2227 2266 2272 4661
4661 5 2184 2185 2188 2190 4660
4662 5 2140 2240 2246 4663 4664
4663 4 2139 2140 2246 4662
4664 7 33 34 2140 2209 2213 2240 4662
4665 5 414 415 416 418 4666
4666 4 416 417 418 4665
4667 5 362 363 364 365 4668
4668 6 315 318 364 365 428 4667
4669 5 2957 2959 2965 4586 4670
4670 5 2956 2957 2959 2961 4669
4671 4 2953 2954 2957 4672
4672 8 2952 2953 2957 2958 4586 4671 4673 4906
4673 4 2952 2975 4672 4906
4674 5 3750 3754 3755 3757 4675
4675 5 3752 3754 3757 4528 4674
4676 6 3786 3788 3828 3830 4532 4678
4677 4 3786 3787 3789 4679
4678 5 3788 3828 3829 3844 4676
4679 6 3786 3788 3789 3790 3846 4677
4680 9 3752 3753 3757 3762 3763 3778 4681 4682 4683
4681 5 3753 4533 4536 4680 4683
4682 5 3778 3779 4680 4683 4684
4683 5 4533 4680 4681 4682 4684
4684 7 3779 3780 3785 3802 4533 4682 4683
4685 3 3781 3783 4687
4686 3 3783 3784 4688
4687 11 3781 3783 3797 3798 3818 3820 3840 3842 3843 4685 4688
4688 7 3782 3783 3784 3785 3818 4686 4687
4689 5 3792 3793 3796 3815 4690
4690 5 3793 3812 3815 3869 4689
4691 5 3750 3791 4534 4535 4692
4692 8 3786 3787 3830 4531 4534 4535 4568 4691
4693 9 243 245 247 263 265 266 290 291 4694
4694 2 245 4693
4695 8 120 125 182 214 2016 2019 2020 4696
4696 4 118 120 125 4695
4697 9 140 141 143 227 228 248 4699 4701 4707
4698 6 117 122 143 4700 4702 4704
4699 4 143 4697 4700 4701
4700 5 143 4698 4699 4701 4702
4701 5 4697 4699 4700 4702 4707
4702 7 138 4698 4700 4701 4704 4705 4707
4703 2 122 4704
4704 6 122 4698 4702 4703 4705 4706
4705 4 138 4702 4704 4706
4706 6 122 138 497 4704 4705 4711
4707 8 138 139 227 296 497 4697 4701 4702
4708 8 1383 1422 1446 1448 1450 1452 4116 4117
4709 7 107 111 1367 1461 1462 1466 4710
4710 3 1461 1462 4709
4711 6 120 122 497 565 4706 4712
4712 5 497 501 565 567 4711
4713 5 464 465 556 588 4714
4714 6 463 465 466 588 598 4713
4715 4 480 481 483 4716
4716 6 480 483 490 491 595 4715
4717 6 548 549 589 606 607 4718
4718 5 589 603 606 608 4717
4719 6 502 506 572 574 4594 4720
4720 12 461 506 574 579 593 1194 1195 1223 1225 4594 4719 4721
4721 3 1223 1225 4720
4722 5 556 588 4595 4723 4724
4723 3 4595 4722 4724
4724 6 588 589 590 4595 4722 4723
4725 8 1974 1975 1976 1977 1978 1979 4168 4726
4726 5 1965 1967 1977 1979 4725
4727 5 1865 1918 1930 4575 4728
4728 5 1904 1914 1930 4575 4727
4729 3 1187 1194 4730
4730 8 1147 1187 1188 1189 1190 1194 1195 4729
4731 6 1158 1173 1176 1177 1197 4732
4732 5 1177 1197 1333 1334 4731
4733 9 1174 1175 1177 1184 1185 1222 1332 1333 4734
4734 3 1177 1333 4733
4735 5 2443 2444 2550 4572 4736
4736 4 2550 2554 4572 4735
4737 5 2546 2548 2552 2553 4738
4738 6 2530 2538 2539 2548 2552 4737
4739 6 2514 2515 2518 4573 4574 4740
4740 6 2514 2517 2518 2525 2531 4739
4741 5 2519 2534 2535 4742 4743
4742 6 2519 2520 2522 2535 2536 4741
4743 7 2519 2521 2534 4573 4574 4741 4744
4744 4 2519 2521 2523 4743
4745 9 2440 2442 2456 2457 2559 4746 4747 4748 4749
4746 3 4745 4747 4749
4747 4 2457 4745 4746 4749
4748 5 2442 2443 2444 4745 4749
4749 6 2444 4571 4745 4746 4747 4748
4750 7 961 967 968 1067 1129 1132 4751
4751 5 961 965 967 1132 4750
4752 4 1062 4753 4754 4758
4753 8 932 933 1061 1062 4752 4758 4759 4760
4754 8 968 969 1062 4752 4756 4758 4759 4761
4755 7 966 969 997 1116 1117 4756 4757
4756 5 969 997 4754 4755 4761
4757 6 966 1116 1118 3880 3882 4755
4758 4 4752 4753 4754 4759
4759 5 4753 4754 4758 4760 4761
4760 8 932 990 998 1000 1002 4753 4759 4761
4761 8 997 1000 4754 4756 4759 4760 4762 4763
4762 3 1000 4761 4763
4763 7 992 997 1000 1117 1121 4761 4762
4764 4 3878 3969 3986 4765
4765 6 3878 3964 3966 3969 3975 4764
4766 8 3938 3941 3943 3946 3948 3959 3962 4767
4767 4 3938 3956 3962 4766
4768 4 1629 1630 1631 4792
4769 6 1522 1560 1577 1586 1588 4770
4770 6 1560 1588 1589 4769 4771 4772
4771 6 1558 1560 1562 1589 4770 4772
4772 3 1589 4770 4771
4773 2 4774 4775
4774 3 1572 4773 4775
4775 4 1572 4773 4774 4776
4776 5 1572 4524 4644 4775 4777
4777 5 1572 1574 4524 4659 4776
4778 5 4780 4783 4785 4786 4787
4779 3 1593 4780 4785
4780 8 1525 1527 1592 1593 4778 4779 4785 4787
4781 3 4649 4650 4782
4782 8 1563 1618 1619 4647 4648 4649 4650 4781
4783 9 1593 4646 4651 4778 4784 4785 4786 4788 4790
4784 5 1594 4646 4651 4783 4791
4785 5 1593 4778 4779 4780 4783
4786 3 4778 4783 4787
4787 5 1572 1592 4778 4780 4786
4788 3 4783 4789 4790
4789 4 4646 4788 4790 4791
4790 4 4646 4783 4788 4789
4791 5 1594 4646 4784 4789 4792
4792 6 1529 1594 1629 1631 4768 4791
4793 6 3396 3447 3448 4794 4812 4813
4794 5 3448 3449 4793 4813 4814
4795 4 3332 3436 3442 4796
4796 9 3429 3436 3437 3438 3439 3442 3443 3444 4795
4797 6 3329 3330 3332 3333 3442 4798
4798 9 3329 3331 3333 3335 3361 3362 3363 3364 4797
4799 7 3325 3327 3328 3372 3373 3377 4800
4800 4 3322 3328 4799 4801
4801 3 3322 4611 4800
4802 8 3342 3343 3346 3348 4613 4803 4804 4805
4803 4 3337 3343 4802 4805
4804 5 3344 4613 4802 4805 4806
4805 5 4802 4803 4804 4806 4823
4806 6 3344 3352 4610 4804 4805 4823
4807 8 1694 1750 1753 4103 4197 4808 4811 4812
4808 4 4807 4809 4811 4812
4809 5 4808 4810 4811 4812 4814
4810 4 4809 4812 4813 4814
4811 7 1753 4807 4808 4809 4814 4816 4929
4812 10 3446 3447 4103 4104 4793 4807 4808 4809 4810 4813
4813 5 4793 4794 4810 4812 4814
4814 8 3449 4794 4809 4810 4811 4813 4815 4816
4815 5 3449 4614 4814 4816 4817
4816 6 4609 4811 4814 4815 4817 4929
4817 4 4609 4614 4815 4816
4818 6 3445 4611 4612 4819 4820 4825
4819 7 3352 4610 4611 4818 4820 4821 4822
4820 4 4818 4819 4822 4825
4821 5 4610 4819 4822 4823 4824
4822 5 4819 4820 4821 4824 4825
4823 6 4610 4805 4806 4821 4824 4825
4824 4 4821 4822 4823 4825
4825 5 4818 4820 4822 4823 4824
4826 7 710 711 714 715 2917 3767 4827
4827 5 710 711 712 1089 4826
4828 6 618 646 647 648 791 4829
4829 5 641 647 648 795 4828
4830 4 3860 3862 4831 4832
4831 5 3094 3099 3860 4830 4832
4832 7 3094 3097 3098 3838 3862 4830 4831
4833 7 3077 3124 3139 3162 3166 3168 4834
4834 6 3047 3077 3082 3162 3165 4833
4835 8 1571 3054 3058 3127 4589 4836 4837 4838
4836 3 3054 4835 4837
4837 6 3052 3054 4591 4835 4836 4838
4838 6 3122 3127 3128 4591 4835 4837
4839 5 92 103 104 106 4840
4840 5 92 93 94 106 4839
4841 5 19 22 3543 3563 4842
4842 5 22 60 67 3563 4841
4843 6 6 8 40 44 45 4844
4844 6 6 7 45 4615 4843 4849
4845 4 43 46 86 4846
4846 6 85 86 87 4845 4847 4848
4847 3 87 4846 4848
4848 4 87 88 4846 4847
4849 5 43 44 45 4615 4844
4850 4 3581 3582 4618 4851
4851 6 3581 3606 3611 4616 4618 4850
4852 3 3607 4853 4854
4853 6 3413 3414 3607 3609 4852 4854
4854 7 3414 3516 3554 3558 3607 4852 4853
4855 7 4158 4160 4163 4168 4171 4223 4856
4856 3 4158 4168 4855
4857 6 4131 4134 4187 4190 4198 4858
4858 5 4190 4198 4199 4200 4857
4859 5 2824 2867 3658 4606 4860
4860 3 2824 4606 4859
4861 5 3316 3318 3319 3320 4862
4862 6 3298 3319 3320 4256 4375 4861
4863 6 3203 3212 3213 3298 3302 4864
4864 10 3201 3203 3211 3213 3214 3215 3249 3250 3251 4863
4865 7 2007 2008 2011 2013 2015 2097 4866
4866 4 2005 2008 2097 4865
4867 5 2067 2073 2074 2078 4868
4868 5 2026 2067 2074 2076 4867
4869 8 2046 2047 2048 2050 2051 2057 2058 4870
4870 6 2039 2047 2057 2075 2126 4869
4871 5 2023 2026 2027 4872 4873
4872 4 2026 4871 4873 4874
4873 6 546 2023 2033 4871 4872 4874
4874 5 2025 2026 2033 4872 4873
4875 8 2034 2104 2105 2109 2110 2111 2133 4876
4876 4 2029 2034 2111 4875
4877 5 2396 2397 2399 4878 4879
4878 7 2396 2398 2403 4877 4879 4880 4881
4879 5 2394 2399 4877 4878 4881
4880 7 2301 2403 2404 4878 4881 4882 4883
4881 5 2301 2394 4878 4879 4880
4882 4 2301 2400 4880 4883
4883 6 2400 2401 2402 2404 4880 4882
4884 7 2300 2401 2409 2411 2429 2431 4885
4885 4 2409 2427 2431 4884
4886 8 2286 2290 2293 2313 2388 2393 4887 4888
4887 4 2293 2294 4886 4888
4888 8 2294 2388 2389 2391 4886 4887 4889 4892
4889 10 2289 2294 2373 2374 2376 2427 4888 4891 4892 4893
4890 4 2406 2409 2427 4891
4891 6 2373 2406 2408 2427 4889 4890
4892 4 2391 4888 4889 4893
4893 8 2376 2378 2379 2391 2392 2512 4889 4892
4894 10 1779 1780 1847 1858 2734 2735 2761 2764 2765 4895
4895 5 1844 1847 2728 2735 4894
4896 8 1823 1824 1826 2699 2701 4565 4566 4897
4897 7 1826 1827 1838 4564 4565 4566 4896
4898 4 4300 4301 4580 4899
4899 3 4301 4898 4901
4900 7 4361 4363 4364 4366 4367 4581 4902
4901 5 4274 4277 4301 4899 4903
4902 3 4274 4581 4900
4903 7 4266 4274 4276 4277 4901 4904 4905
4904 4 4266 4360 4903 4905
4905 4 4276 4360 4903 4904
4906 7 2975 4579 4586 4672 4673 4907 4908
4907 2 4906 4908
4908 6 2975 4328 4579 4906 4907 4909
4909 7 2889 2944 2946 2975 4325 4328 4908
4910 6 1717 1718 1719 1955 1957 4911
4911 5 1632 1711 1718 1719 4910
4912 6 1661 1663 1672 1674 4630 4913
4913 6 1660 1664 1674 4630 4631 4912
4914 4 1665 1684 4917 4922
4915 9 1666 1667 1668 1690 2584 2587 2660 4916 4917
4916 4 1690 2660 4915 4918
4917 6 1665 1667 1668 1684 4914 4915
4918 8 1690 1691 2660 2662 4916 4919 4920 4921
4919 5 2662 2664 4918 4921 4928
4920 4 1691 4638 4918 4921
4921 8 2568 2569 4638 4640 4918 4919 4920 4928
4922 8 1660 1665 1669 1683 1684 1723 4631 4914
4923 5 2596 2597 2598 2602 4924
4924 8 2596 2598 2625 2629 2647 2648 4603 4923
4925 8 2597 2604 2610 2612 2614 4603 4605 4926
4926 3 2604 4603 4925
4927 6 2563 2573 2656 2663 2664 4928
4928 6 2569 2573 2664 4919 4921 4927
4929 7 1753 4017 4543 4609 4811 4816 4930
4930 4 4017 4543 4929 4931
4931 7 4016 4017 4018 4543 4544 4560 4930
4932 8 1741 3997 3998 3999 4000 4025 4641 4933
4933 5 3996 3997 3999 4047 4932
4934 3 4543 4544 4935
4935 6 4022 4028 4048 4543 4544 4934
4936 6 1685 1688 4002 4083 4084 4085
4937 8 3340 4026 4027 4543 4609 4614 4938 4939
4938 4 4027 4029 4937 4939
4939 6 3340 4029 4036 4937 4938 4943
4940 7 4003 4078 4080 4084 4085 4086 4941
4941 6 4078 4079 4086 4087 4637 4940
4942 9 4005 4023 4043 4044 4045 4046 4050 4064 4561
4943 6 4029 4036 4939 4944 4950 4956
4944 6 4029 4031 4943 4945 4950 4956
4945 6 4031 4052 4944 4949 4956 4964
4946 6 4020 4023 4048 4049 4050 4947
4947 3 4023 4050 4946
4948 8 4038 4050 4051 4052 4060 4949 4952 4955
4949 7 4038 4052 4945 4948 4956 4964 4966
4950 7 4036 4037 4943 4944 4951 4956 4957
4951 5 4033 4035 4037 4950 4957
4952 6 4046 4050 4948 4953 4954 4955
4953 6 4046 4059 4062 4064 4952 4954
4954 5 4060 4062 4952 4953 4955
4955 5 4050 4060 4948 4952 4954
4956 8 4943 4944 4945 4949 4950 4957 4964 4965
4957 5 4033 4950 4951 4956 4965
4958 4 4081 4089 4090 4959
4959 6 4081 4089 4545 4958 4960 4961
4960 3 4545 4959 4961
4961 5 4088 4089 4545 4959 4960
4962 4 4038 4060 4546 4963
4963 6 4038 4039 4042 4546 4962 4966
4964 5 4945 4949 4956 4965 4966
4965 6 4033 4956 4957 4964 4966 4967
4966 7 4038 4039 4949 4963 4964 4965 4967
4967 6 4033 4039 4040 4041 4965 4966
4968 8 4066 4067 4068 4069 4073 4088 4545 4969
4969 4 4 4067 4545 4968
4970 5 4548 4549 4550 4551 4971
4971 3 4548 4551 4970
4972 2 4973 4974
4973 2 4972 4974
4974 7 4014 4032 4034 4553 4554 4972 4973
4975 5 4015 4549 4551 4556 4976
4976 5 4015 4551 4975 4977 4978
4977 6 4010 4011 4012 4015 4976 4978
4978 5 4012 4058 4551 4976 4977
4979 8 828 829 830 831 832 914 2574 2628
4980 11 830 899 900 913 914 915 2574 2575 2576 2577 4981
4981 6 910 911 912 913 915 4980
4982 11 902 904 905 906 907 908 909 911 912 913 4983
4983 9 816 817 818 819 902 903 905 913 4982
4984 6 882 898 899 900 2592 2595
4985 10 2680 2681 2682 2694 2696 2750 2767 2771 4986 4990
4986 7 2696 2753 2755 2767 2768 2769 4985
4987 8 4449 4451 4452 4454 4455 4498 4500 4501
4988 6 4461 4483 4503 4504 4505 4506
4989 6 4411 4412 4413 4502 4507 4508
4990 20 2679 2680 2683 2685 2686 2749 2750 4414 4415 4431 4433 4434 4439 4440 4442 4443 4446 4503 4504 4985
4991 4 4480 4488 4490 4992
4992 4 4484 4490 4491 4991
4993 6 2758 2759 4437 4494 4622 4624
4994 4 4423 4484 4486 4487
